dataVASP_243161;Ref:126037:MgNbF6
1.0
        7.8488597870         0.0000000000         0.0000000000
        0.0000000000        15.6977195740         0.0000000000
        0.0000000000         0.0000000000         7.8488597870
    F   Mg   Nb He
   48    8    8 20008
Direct
     0.748099968         0.250000000         0.000000000
     0.748099968         0.750000000         0.000000000
     0.748099968         0.000000000         0.500000000
     0.748099968         0.500000000         0.500000000
     0.248099999         0.250000000         0.500000000
     0.248099999         0.750000000         0.500000000
     0.251899986         0.250000000         0.000000000
     0.251899986         0.750000000         0.000000000
     0.251899986         0.000000000         0.500000000
     0.251899986         0.500000000         0.500000000
     0.751900032         0.250000000         0.500000000
     0.751900032         0.750000000         0.500000000
     0.500000000         0.374049984         0.000000000
     0.500000000         0.874050045         0.000000000
     0.500000000         0.124049999         0.500000000
     0.500000000         0.624050045         0.500000000
     0.000000000         0.374049984         0.500000000
    -0.000000000         0.874050045         0.500000000
     0.500000000         0.250000000         0.248099999
     0.500000000         0.750000000         0.248099999
     0.500000000         0.000000000         0.748099968
     0.500000000         0.500000000         0.748099968
     0.000000000         0.250000000         0.748099968
     0.000000000         0.750000000         0.748099968
     0.500000000         0.125949993         0.000000000
     0.500000000         0.625949955         0.000000000
     0.500000000         0.375950016         0.500000000
     0.500000000         0.875949955         0.500000000
    -0.000000000         0.125949993         0.500000000
     0.000000000         0.625949955         0.500000000
     0.500000000         0.250000000         0.751900032
     0.500000000         0.750000000         0.751900032
     0.500000000         0.000000000         0.251899986
     0.500000000         0.500000000         0.251899986
    -0.000000000         0.250000000         0.251899986
     0.000000000         0.750000000         0.251899986
    -0.000000000        -0.000000000         0.751900032
    -0.000000000         0.500000000         0.751900032
    -0.000000000         0.375950016         0.000000000
     0.000000000         0.875949955         0.000000000
    -0.000000000        -0.000000000         0.248099999
     0.000000000         0.500000000         0.248099999
    -0.000000000         0.124049999         0.000000000
    -0.000000000         0.624050045         0.000000000
     0.751900032         0.000000000         0.000000000
     0.751900032         0.500000000         0.000000000
     0.248099999         0.000000000         0.000000000
     0.248099999         0.500000000         0.000000000
     0.500000000         0.250000000         0.000000000
     0.500000000         0.750000000         0.000000000
     0.500000000         0.000000000         0.500000000
     0.500000000         0.500000000         0.500000000
     0.000000000         0.250000000         0.500000000
     0.000000000         0.750000000         0.500000000
     0.000000000         0.000000000         0.000000000
     0.000000000         0.500000000         0.000000000
     0.000000000         0.000000000         0.500000000
     0.000000000         0.500000000         0.500000000
     0.000000000         0.250000000         0.000000000
     0.000000000         0.750000000         0.000000000
     0.500000000         0.000000000         0.000000000
     0.500000000         0.500000000         0.000000000
     0.500000000         0.250000000         0.500000000
     0.500000000         0.750000000         0.500000000
0.62404998	0.31202499	0.12404998
0.62404998	0.81202499	0.12404998
0.62404998	0.06202499	0.62404998
0.62404998	0.56202499	0.62404998
0.12404998	0.31202499	0.62404998
0.12404998	0.81202499	0.62404998
0.12404998	0.06202499	0.12404998
0.12404998	0.56202499	0.12404998
0.6201732	0.31483893	0.12013865
0.62301145	0.81265513	0.13553948
0.62351151	0.06145479	0.62376594
0.63311401	0.56419445	0.62196444
0.12332923	0.31342957	0.62330264
0.12345399	0.81739914	0.62992303
0.11952165	0.05705034	0.13494691
0.11904912	0.56343659	0.12936498
0.62191144	0.31487202	0.1204598
0.62809374	0.81154246	0.13161289
0.61790327	0.05950962	0.62308027
0.63422585	0.56305683	0.62083483
0.12774006	0.31512116	0.62067608
0.12219444	0.81732498	0.63065434
0.12092403	0.06198416	0.13169671
0.11836013	0.56413824	0.1269527
0.62603608	0.31464475	0.11735981
0.63162344	0.80972062	0.12239106
0.61552736	0.05809395	0.62528451
0.63368321	0.56244357	0.62372184
0.13030343	0.31858967	0.62242842
0.12014545	0.81554155	0.62723381
0.1229117	0.07004881	0.12130723
0.1211117	0.56349064	0.12540051
0.62577992	0.31619745	0.11590776
0.62905752	0.8129418	0.12733689
0.61806673	0.06114415	0.62756602
0.63353086	0.56267403	0.62531738
0.12801598	0.3213107	0.62895674
0.12235341	0.81545233	0.62783116
0.11710095	0.06957487	0.12632812
0.12485842	0.56466833	0.13086371
0.62284305	0.31817245	0.11980862
0.62851789	0.81861701	0.140033
0.61772563	0.06423008	0.62114116
0.63041005	0.56076908	0.62271744
0.12447751	0.31977082	0.63413969
0.12428644	0.81747518	0.62714935
0.10670454	0.06485351	0.13104375
0.12498021	0.56883873	0.13519057
0.62161994	0.31897948	0.11927665
0.6359008	0.81884373	0.14041642
0.6141737	0.06197004	0.61652122
0.62576149	0.56030198	0.62123628
0.12446705	0.31750912	0.63556603
0.11823998	0.81950171	0.61675461
0.10215916	0.06573134	0.11598934
0.12411787	0.57330477	0.13228324
0.62260639	0.31880698	0.11450878
0.64276636	0.81557232	0.12416912
0.61346516	0.0588288	0.62555646
0.6226665	0.56284751	0.62357695
0.12906454	0.32045915	0.62873339
0.1126396	0.81869281	0.60799281
0.1050383	0.0747249	0.10984748
0.1305701	0.57342274	0.12309641
0.62243108	0.31910464	0.11301178
0.64020602	0.81424868	0.11483913
0.6168118	0.06173169	0.63533156
0.62453542	0.56510424	0.62710004
0.13160597	0.32163297	0.61998864
0.11435713	0.81749366	0.61551574
0.1130785	0.08285302	0.12107016
0.14171286	0.57072327	0.11707314
0.61774205	0.3207853	0.11724621
0.6371053	0.81456949	0.12781823
0.61893515	0.06646462	0.63543306
0.63142428	0.56586472	0.62681041
0.12561081	0.31823175	0.61473585
0.11928297	0.81813412	0.63191064
0.1212649	0.08342762	0.12683652
0.14179633	0.57155151	0.11630104
0.61093356	0.32068967	0.12362496
0.64571883	0.8154676	0.13617631
0.61403178	0.06738318	0.63502647
0.63426698	0.56399806	0.62119733
0.1171104	0.31490068	0.61020639
0.12130552	0.81756561	0.63601446
0.12096912	0.07507192	0.12302137
0.13130306	0.57900734	0.11669106
0.60822416	0.31783148	0.12714048
0.65730222	0.81806131	0.12294886
0.6099658	0.06665411	0.64068679
0.62388566	0.56100631	0.61544522
0.11651451	0.31551276	0.60610369
0.12125089	0.81416288	0.62256035
0.1141672	0.07382031	0.11571187
0.12562527	0.58127173	0.1108592
0.6125727	0.32023527	0.12603139
0.65517191	0.82157523	0.1034282
0.61664573	0.06979286	0.64754593
0.6111905	0.55980169	0.61356741
0.12308578	0.32062086	0.60519086
0.12293498	0.80842699	0.60594726
0.11410573	0.08237851	0.11044457
0.14194057	0.57694382	0.10163099
0.62808159	0.32542577	0.1268064
0.64441505	0.82470254	0.0956135
0.62463024	0.07659016	0.6479627
0.60770974	0.56093282	0.61718117
0.12501201	0.32350938	0.60489743
0.12863696	0.80423405	0.60508642
0.12402124	0.08829887	0.11291677
0.15657982	0.57305141	0.10104946
0.63383401	0.32855441	0.13737547
0.63855255	0.82898313	0.11191763
0.62477538	0.07879845	0.63718378
0.61261584	0.56513702	0.62443139
0.11665155	0.31916102	0.6069978
0.13636589	0.80693603	0.61780461
0.12748776	0.08413425	0.11349835
0.1503507	0.57218631	0.1090013
0.62741974	0.32862792	0.14330243
0.6341359	0.83260861	0.12879622
0.62524281	0.07023153	0.6204668
0.61566375	0.57024859	0.63290478
0.10331935	0.31429893	0.6085014
0.13966826	0.81753122	0.62442696
0.1212409	0.0774778	0.11227121
0.13588525	0.57175116	0.110232
0.62481504	0.32701556	0.13871675
0.62930809	0.82822913	0.11594616
0.62523473	0.06429046	0.61485288
0.61516186	0.57134086	0.63601055
0.09925421	0.31464689	0.6052353
0.13405032	0.8204559	0.61778001
0.121018	0.07436103	0.11484901
0.13204748	0.56997476	0.10745536
0.63908243	0.32530086	0.13179329
0.63327075	0.82226281	0.10607994
0.61344684	0.07001367	0.6252399
0.61724449	0.57093341	0.6276871
0.10844628	0.31947195	0.6013003
0.12660935	0.81701216	0.60767506
0.12714535	0.07518438	0.11994279
0.146356	0.56668307	0.10534603
0.65135181	0.32539195	0.13385069
0.63820811	0.8236182	0.12019718
0.6023307	0.07766387	0.63840287
0.62117778	0.5741818	0.61754117
0.11574117	0.3222905	0.60468131
0.12933515	0.81991542	0.61527744
0.13547499	0.07006924	0.11982111
0.15141391	0.56476542	0.1060378
0.6454139	0.32639847	0.14268854
0.62862763	0.82444172	0.13228686
0.60427223	0.07619506	0.64576204
0.62019072	0.57528777	0.61851928
0.11295445	0.31958252	0.61052131
0.13755324	0.82369712	0.6317594
0.14469686	0.05726812	0.1152818
0.14281323	0.56502219	0.11223706
0.62929955	0.32636916	0.14860671
0.62043603	0.82341966	0.13074898
0.61525114	0.07289672	0.64640116
0.61752093	0.57356639	0.63383454
0.11927418	0.3164415	0.61773421
0.13597542	0.82093456	0.63516497
0.15132696	0.04873691	0.11249481
0.12982153	0.56577445	0.11814938
0.61949268	0.3263202	0.14970459
0.62372643	0.82136456	0.12339358
0.62263395	0.07635181	0.64516141
0.62097621	0.57392748	0.63976497
0.12623459	0.31858986	0.6259735
0.12621926	0.81802415	0.62020795
0.15553477	0.05294872	0.11875925
0.12340418	0.56563611	0.12614029
0.62696032	0.32815715	0.14392404
0.62825138	0.82002147	0.12713061
0.62229198	0.08141063	0.64822161
0.62873225	0.57462852	0.62965593
0.12502142	0.32257544	0.6259686
0.1240006	0.82061407	0.61242372
0.15597889	0.06370177	0.12507699
0.12789248	0.56389695	0.13370578
0.64053569	0.33040132	0.13652169
0.62810668	0.81925895	0.14235673
0.6184068	0.07947759	0.65308716
0.62972781	0.57415657	0.62584918
0.1254834	0.32101498	0.62284599
0.13342431	0.82630855	0.619092
0.15276511	0.07031049	0.11545502
0.13658268	0.56252867	0.13427851
0.63741448	0.32969367	0.13307616
0.63073305	0.81821222	0.15218444
0.62014632	0.07157506	0.65161702
0.62471162	0.57556758	0.63630143
0.12788005	0.31479533	0.62502962
0.13689489	0.82860532	0.62601121
0.14716154	0.06626382	0.10707421
0.13065707	0.56228523	0.13390969
0.62158123	0.32655207	0.13091982
0.63822025	0.8174211	0.14579935
0.63113325	0.06440515	0.64892429
0.62664887	0.57888437	0.64142648
0.12640219	0.3121316	0.6236404
0.1315362	0.82448986	0.62381768
0.14275465	0.06379044	0.11187149
0.11621133	0.56197775	0.13408594
0.61979255	0.32042107	0.13166961
0.64466655	0.81773185	0.13702015
0.63207518	0.06450576	0.64858602
0.63156755	0.57859151	0.64035938
0.12658049	0.31844764	0.61441791
0.12525515	0.82087291	0.6156924
0.13960328	0.06788165	0.11804975
0.11913524	0.56139017	0.13016953
0.62566439	0.31533617	0.13366937
0.64901438	0.81976643	0.1376259
0.62676015	0.07062441	0.6460684
0.63368198	0.57457794	0.64034489
0.12755594	0.32501866	0.60988446
0.12451699	0.81960253	0.61193758
0.13155851	0.07224584	0.11785379
0.12131687	0.56141766	0.12281772
0.62374344	0.31336028	0.13259976
0.64831083	0.81966963	0.14176347
0.62810442	0.07356205	0.6399318
0.63345731	0.57086104	0.64171588
0.12866037	0.32273321	0.61721821
0.12655968	0.81734379	0.61700369
0.12026103	0.07128877	0.11660802
0.11770285	0.56338275	0.11695551
0.61555293	0.31242406	0.12988426
0.64149233	0.81746852	0.13909928
0.62948623	0.06970359	0.63025577
0.63112481	0.57022722	0.64714523
0.12872646	0.3169927	0.62710376
0.12299254	0.81456224	0.62530542
0.11599152	0.0648779	0.11673782
0.11615543	0.5690106	0.11518056
0.61140582	0.31210775	0.12926096
0.63396033	0.8185641	0.13284571
0.62728135	0.06581666	0.6228843
0.6270211	0.57178835	0.65139176
0.12819918	0.31731357	0.63130037
0.11971653	0.81351135	0.62506115
0.12477541	0.06236717	0.1199954
0.12136149	0.57327455	0.11629567
0.61716811	0.31343599	0.12992333
0.63379471	0.82126088	0.12975521
0.62528301	0.06440257	0.62114878
0.62513319	0.57112434	0.64987054
0.12852703	0.32270514	0.63226754
0.12398673	0.81306713	0.61461523
0.1282668	0.06815638	0.12223921
0.13107167	0.57125855	0.11574333
0.62405918	0.31564224	0.12829731
0.63498189	0.81959075	0.13160296
0.62506793	0.06527388	0.6233752
0.62684707	0.56603705	0.64293647
0.13063519	0.32309467	0.63308364
0.13021444	0.81227896	0.60906846
0.11946673	0.07239944	0.12101736
0.13561207	0.56865651	0.11420144
0.62274712	0.31591142	0.1249489
0.63109776	0.81490472	0.13560114
0.62497417	0.06591328	0.62428649
0.62729061	0.56119081	0.63322687
0.12886149	0.31643743	0.63321326
0.1327635	0.81083296	0.61543082
0.11036115	0.06774025	0.11853399
0.13203666	0.57151765	0.1162941
0.61766577	0.31335733	0.12636235
0.62512079	0.81270046	0.13614183
0.62176019	0.06340907	0.6218326
0.6247697	0.55992838	0.62609604
0.1193423	0.31307564	0.63081854
0.12917915	0.80807714	0.62429337
0.10951343	0.06255914	0.11927705
0.12716324	0.57395122	0.12394069
0.61780992	0.30994317	0.12991616
0.62717658	0.81361673	0.12970123
0.61743326	0.0570185	0.62259841
0.62197277	0.55915312	0.62393222
0.11430716	0.31819811	0.62806541
0.12325221	0.80763612	0.62730313
0.10900995	0.06522059	0.12484907
0.12517339	0.57091948	0.12790206
0.62108426	0.30797839	0.13228783
0.63518601	0.81394261	0.12511068
0.61844935	0.05374949	0.62978873
0.62131265	0.55590748	0.62233449
0.1165533	0.32170462	0.62755774
0.12388545	0.80901505	0.6266604
0.10521651	0.07206286	0.12931851
0.12573054	0.56562268	0.12526383
0.61977479	0.30757271	0.13154705
0.6371543	0.81003242	0.1286554
0.62567081	0.05543318	0.63269019
0.61984486	0.55156511	0.61671786
0.114315	0.31562468	0.63045583
0.12911463	0.8077307	0.62696438
0.10479886	0.07489502	0.12828681
0.12763703	0.56235171	0.12833949
0.61753073	0.30934751	0.12897383
0.63222157	0.8056856	0.13169018
0.63142498	0.05536311	0.62188865
0.61496651	0.55077334	0.60989833
0.1056315	0.30560837	0.63706223
0.1288375	0.80671994	0.63257846
0.11339163	0.07044888	0.12587264
0.1268524	0.56211376	0.13710805
0.62101131	0.31243101	0.13061421
0.63294588	0.8080426	0.12867484
0.62863031	0.04939401	0.60739217
0.60919705	0.55355703	0.6114207
0.10389566	0.30273424	0.640928
0.12054444	0.80946561	0.64068989
0.12274899	0.06094165	0.12686556
0.12231086	0.5623115	0.14095744
0.62466842	0.31251345	0.13241113
0.63936133	0.81350132	0.12539971
0.62016505	0.0450059	0.60051347
0.60587515	0.55365468	0.62045667
0.11338805	0.30494696	0.63773506
0.11386971	0.8131412	0.64012015
0.12645282	0.05599475	0.1289734
0.12024462	0.55833092	0.13684416
0.62353494	0.30835693	0.13016594
0.63841685	0.8122605	0.12239302
0.62102509	0.04956442	0.59982471
0.60414148	0.54876818	0.61539601
0.12376831	0.30314772	0.63045639
0.11699279	0.81274905	0.63098949
0.12496853	0.06211261	0.12706297
0.11691787	0.55339782	0.13466222
0.621811	0.30770891	0.12732668
0.62700587	0.80513323	0.11640908
0.62464089	0.05781291	0.59692948
0.60086747	0.54169844	0.59899199
0.12716992	0.29895164	0.62399245
0.12349245	0.80743963	0.62844162
0.12534147	0.07020826	0.12007201
0.11220989	0.55379807	0.14283347
0.62406892	0.31190492	0.12451076
0.61395158	0.80218693	0.10840096
0.61448635	0.05974435	0.59488008
0.59910131	0.53431818	0.60143912
0.12555434	0.30036441	0.62306782
0.12304535	0.80086816	0.63662893
0.12563947	0.06414151	0.1182127
0.11308416	0.55498326	0.14841236
0.63084374	0.30831464	0.11344987
0.60718015	0.80708682	0.10677547
0.59704511	0.05594033	0.59836797
0.6011824	0.53115167	0.61137061
0.12559606	0.30427475	0.61683464
0.1180231	0.79725634	0.64388209
0.12624036	0.04989099	0.1312654
0.12042843	0.55300891	0.14012915
0.63261274	0.30595007	0.09671557
0.6054038	0.80991588	0.11400873
0.59755932	0.05177524	0.60124064
0.60530721	0.53860942	0.61161223
0.12805125	0.30277402	0.60643853
0.11935154	0.79811528	0.64262512
0.13400895	0.05127607	0.13964756
0.12241198	0.55147221	0.12720893
0.63389704	0.30938684	0.08708994
0.60258473	0.80720535	0.12051742
0.61700603	0.05218495	0.60261615
0.61465105	0.55528944	0.6122035
0.12841992	0.29761574	0.61308137
0.12570394	0.80109821	0.63475947
0.14084162	0.06131329	0.13609081
0.11398594	0.55205442	0.12605554
0.63299999	0.30929872	0.09014648
0.59052296	0.80641144	0.11757484
0.62636421	0.05712995	0.60736009
0.61762842	0.56888556	0.61973852
0.12022047	0.29274181	0.6234033
0.12414514	0.80373063	0.63126592
0.13673609	0.0526401	0.11712556
0.11099766	0.55369545	0.1321877
0.62569016	0.3058936	0.09113791
0.57623435	0.80964527	0.11246226
0.61540165	0.06011377	0.60903204
0.61281707	0.56650713	0.62450385
0.10997612	0.29185551	0.62378774
0.10944549	0.80359434	0.63466919
0.1352374	0.04515246	0.1034231
0.11238371	0.55280742	0.13049639
0.61948322	0.30162206	0.0850197
0.57238515	0.81280312	0.11086415
0.60924684	0.06094426	0.60169612
0.62071512	0.55905875	0.61724237
0.11577966	0.29635771	0.61796243
0.09809153	0.80073765	0.63758088
0.14230055	0.04944569	0.10791195
0.11218827	0.55098722	0.1196365
0.61997314	0.29815907	0.08861973
0.5776229	0.81359806	0.11371066
0.61187901	0.06575839	0.59214973
0.62685218	0.56082589	0.6136817
0.12263258	0.30179956	0.62000255
0.10567343	0.79759189	0.63247559
0.14632579	0.05327105	0.12342544
0.11162978	0.55106331	0.11923896
0.62228519	0.29959265	0.09949503
0.58025846	0.81110384	0.11213427
0.61407786	0.06504067	0.58970808
0.62268748	0.57057763	0.61801488
0.11882006	0.30381689	0.63533257
0.11461054	0.79718859	0.62167321
0.13498323	0.0510717	0.12923978
0.11102324	0.55088414	0.12979356
0.62303825	0.30476475	0.09785711
0.58193697	0.80580107	0.10891874
0.61014546	0.06148707	0.59603681
0.62683318	0.57144061	0.62284937
0.11792137	0.30146029	0.64632748
0.11336582	0.79882085	0.61370455
0.11697107	0.0469254	0.12732398
0.11237524	0.54962893	0.13233982
0.62693632	0.30943398	0.08864301
0.59066516	0.80204592	0.1047608
0.60502974	0.05942191	0.59797195
0.63148972	0.56434735	0.62436753
0.12052836	0.29861515	0.63863214
0.10825075	0.79300849	0.61490821
0.11316115	0.04302513	0.12605833
0.11251077	0.55006366	0.12492397
0.63233819	0.31207596	0.08923388
0.5998955	0.80355171	0.11260275
0.60947676	0.0593994	0.59264298
0.62981335	0.56006153	0.62068899
0.11551151	0.29800933	0.62357991
0.10865035	0.79372828	0.61938426
0.12080615	0.04205242	0.12401639
0.10906923	0.55262605	0.12269575
0.63024443	0.31046387	0.0983243
0.60224368	0.80546312	0.12472298
0.62189949	0.06055187	0.59562105
0.62846147	0.56332629	0.61181042
0.11694208	0.29873155	0.61878831
0.11259571	0.8046103	0.61952314
0.12523632	0.04263824	0.12447481
0.10446392	0.55308628	0.13296581
0.61861868	0.30813141	0.10391409
0.59791382	0.80334403	0.12532099
0.63304991	0.06119508	0.6039148
0.62653424	0.56647393	0.6029481
0.12698367	0.29826947	0.62869232
0.11283404	0.80532527	0.61935761
0.12271159	0.04462058	0.12630269
0.10307123	0.55025349	0.13932028
0.61122907	0.30700317	0.103193
0.59747182	0.8011022	0.11585368
0.64006046	0.06058386	0.5977077
0.62434056	0.5637303	0.60607619
0.132148	0.29824087	0.64111848
0.1109708	0.79873352	0.62368366
0.11900002	0.04775093	0.12474079
0.10404611	0.54824336	0.13233538
0.61443058	0.30526874	0.10304796
0.6051475	0.80373689	0.11201025
0.64033806	0.060145	0.58891039
0.62130126	0.55825369	0.61398017
0.12988929	0.3028437	0.64347131
0.11736164	0.79853934	0.6323667
0.11670876	0.05203846	0.12386799
0.10295814	0.54950183	0.1205766
0.6207214	0.30456819	0.10440441
0.61340187	0.80987541	0.11660716
0.63506489	0.06012255	0.59260127
0.61794021	0.55687748	0.61372541
0.12667148	0.30743897	0.63519935
0.12373757	0.80439197	0.63491508
0.11458412	0.05264094	0.12443562
0.09893851	0.5500866	0.11825028
0.61973881	0.30377619	0.10701233
0.61602651	0.81085775	0.12182188
0.63092249	0.06022077	0.59772608
0.61274085	0.55825067	0.61397688
0.12683716	0.30472325	0.62989573
0.12202728	0.80701868	0.63072943
0.11357516	0.05170401	0.12543011
0.09831948	0.54843425	0.1254174
0.61697324	0.30240727	0.11395493
0.61869831	0.80520192	0.11486366
0.62729602	0.0588388	0.603991
0.61085222	0.55860114	0.61873056
0.13230356	0.30441248	0.63499107
0.12019861	0.80289579	0.63209398
0.11451606	0.05598984	0.12403646
0.10467727	0.54906921	0.13179234
0.62525285	0.30333661	0.11948495
0.62487586	0.80141398	0.10517872
0.63086197	0.05806978	0.60804324
0.6155113	0.55463729	0.61917378
0.13643732	0.30903067	0.63392361
0.12295479	0.79872405	0.63912275
0.1165948	0.058774	0.11773746
0.11158729	0.55207961	0.12858479
0.63010577	0.30527589	0.1196569
0.62857999	0.80310368	0.10553286
0.63457615	0.0595127	0.61003692
0.62196767	0.55101892	0.61182712
0.13193994	0.31114869	0.62486908
0.12392046	0.8021741	0.6434119
0.11758801	0.05571882	0.11084849
0.11492333	0.55439794	0.12445176
0.6190695	0.30480612	0.11814178
0.62650375	0.80473117	0.1187464
0.62773869	0.06135616	0.61516049
0.62339752	0.55309583	0.60413379
0.1235771	0.30973306	0.61801068
0.11911443	0.81185145	0.64247739
0.11641594	0.05628899	0.10908369
0.11596352	0.55614589	0.12627605
0.60692953	0.30369644	0.1173268
0.61940862	0.80357339	0.12825669
0.62239315	0.05964217	0.61759892
0.623325	0.55960053	0.60534036
0.12027378	0.30947126	0.61445338
0.12173021	0.81659604	0.63681133
0.11357323	0.05808198	0.11409702
0.11895407	0.55986533	0.13222606
0.60799198	0.30386048	0.11915614
0.60962921	0.80089432	0.12286326
0.62700343	0.05533891	0.61646039
0.6231791	0.56019468	0.61873257
0.12268967	0.31236387	0.61583328
0.12829428	0.81176233	0.62993869
0.11431624	0.06020894	0.12214107
0.12470244	0.56387215	0.13284465
0.6166244	0.30459695	0.12267775
0.6045012	0.80198584	0.11659878
0.63386014	0.05330011	0.61603423
0.62433686	0.55641322	0.62720047
0.12757957	0.31585856	0.61855973
0.12663736	0.8078014	0.62467065
0.12128751	0.0637712	0.1201469
0.12953666	0.56501568	0.12441182
0.6190207	0.30436317	0.12276504
0.60572311	0.80682739	0.11992411
0.62839467	0.05603974	0.61369048
0.62556223	0.55579434	0.61977664
0.13029881	0.31732345	0.61961108
0.12457899	0.81349519	0.62041985
0.12595549	0.06716638	0.1088631
0.1305777	0.56415518	0.11821704
0.61449291	0.3034773	0.11821367
0.6085818	0.81010394	0.12584709
0.61390564	0.05880703	0.60985452
0.62358715	0.55853502	0.61659259
0.12652658	0.31389877	0.62011757
0.12725229	0.81971215	0.61781528
0.11903248	0.06900199	0.10938276
0.12861813	0.56401288	0.12384091
0.61188419	0.30387949	0.11602539
0.60762376	0.81003224	0.12524804
0.60832913	0.05694465	0.61147977
0.62139893	0.55941707	0.62823993
0.11728746	0.3121921	0.62221329
0.12999001	0.81979987	0.61793084
0.11258358	0.06873996	0.11408412
0.12144028	0.56591996	0.13307687
0.61354233	0.30585021	0.11911429
0.60717654	0.80968256	0.11974553
0.61831002	0.05549398	0.61923226
0.62622163	0.55646117	0.63902221
0.11610721	0.31650624	0.62588712
0.12500149	0.81921977	0.62045645
0.11594287	0.07008884	0.10729746
0.11656422	0.56848857	0.13774529
0.61709185	0.30768165	0.12742819
0.614803	0.8118258	0.11616147
0.62778262	0.05963109	0.62488662
0.63624474	0.55496181	0.63822832
0.12352045	0.32152743	0.62832032
0.11486916	0.82051083	0.62562847
0.13053839	0.07181748	0.10629025
0.12069287	0.56955349	0.13685148
0.62317673	0.30846498	0.13567772
0.62449882	0.81630011	0.122575
0.62479436	0.06476241	0.62542432
0.64155719	0.55727763	0.63331334
0.12241396	0.31994493	0.62730411
0.10914516	0.8221616	0.63011005
0.14000559	0.07101563	0.12039383
0.1304424	0.56911192	0.1353057
0.63171462	0.31211795	0.14153218
0.63014281	0.81862056	0.1308349
0.62515871	0.06382881	0.62742738
0.63598153	0.56105882	0.64185347
0.11636702	0.31576428	0.62331696
0.11301345	0.82258482	0.62771589
0.13377067	0.06931128	0.13002791
0.1369265	0.57077071	0.13837993
0.6371646	0.32108037	0.1465539
0.63091607	0.81668796	0.12788266
0.63369513	0.05520202	0.63520728
0.62259276	0.56465328	0.6602617
0.12597827	0.31644221	0.62291635
0.11709963	0.82238955	0.62097147
0.12928499	0.07038356	0.12256517
0.12930679	0.57380759	0.14602216
0.63869153	0.32665554	0.15678877
0.63055981	0.81520904	0.12113558
0.63599549	0.0480816	0.64281497
0.6145544	0.56532818	0.67036505
0.14133139	0.32397436	0.63165492
0.11071178	0.82126942	0.61797406
0.13570754	0.07518541	0.11611016
0.12332239	0.57190686	0.1515863
0.64375564	0.32516596	0.16596396
0.63249539	0.81840261	0.12151043
0.63002239	0.05507624	0.64141787
0.61601502	0.56379975	0.66700269
0.14750309	0.32464447	0.638425
0.10555444	0.82163545	0.6221255
0.13931883	0.07608342	0.11591399
0.12280992	0.56595118	0.14930545
0.64868893	0.32406092	0.16264054
0.63773899	0.8241904	0.12803375
0.61675182	0.06961321	0.63585505
0.61778762	0.56289925	0.65728162
0.14287574	0.31652712	0.6351053
0.11761701	0.82326292	0.62204527
0.13424836	0.07131159	0.11867838
0.12172796	0.56468366	0.13635913
0.64836644	0.32877102	0.15533678
0.64432853	0.82598596	0.13796999
0.6047806	0.06806881	0.63370473
0.61718727	0.56276647	0.65618954
0.13362382	0.30783416	0.63466748
0.13105136	0.82300784	0.61938294
0.12965091	0.06998486	0.12179594
0.1215078	0.57036315	0.1243431
0.64189446	0.32884167	0.15368307
0.64902441	0.83027842	0.1475926
0.60616977	0.06042408	0.63925847
0.61399963	0.56431395	0.66257788
0.1221316	0.30913649	0.63855776
0.12883895	0.82182399	0.6238402
0.13325944	0.07061327	0.12513811
0.12306631	0.58009377	0.12837982
0.63370255	0.32672862	0.1601879
0.65035276	0.83795879	0.15301242
0.62141292	0.06501266	0.64197652
0.61732809	0.56657372	0.66884481
0.11675567	0.31630742	0.64321649
0.12314551	0.82073731	0.62729219
0.14786867	0.06986686	0.12805883
0.1271086	0.5829867	0.14033085
0.63219858	0.32710777	0.16820621
0.64880015	0.8410671	0.15143434
0.63552715	0.07686726	0.63939455
0.62862626	0.56943478	0.66827648
0.11397018	0.32057892	0.64726064
0.12488529	0.81968657	0.62216089
0.15600384	0.07115391	0.12928592
0.13868741	0.57923816	0.14194864
0.63513518	0.32963964	0.16783688
0.65415947	0.83914107	0.14738391
0.63127558	0.08087265	0.64503121
0.62891524	0.57156473	0.65879553
0.10878841	0.31856997	0.64750009
0.13906194	0.82054502	0.61441416
0.14854471	0.0763017	0.12857132
0.14710872	0.57683051	0.13267794
0.63534006	0.33259773	0.1573248
0.66368524	0.83511864	0.14766466
0.61307715	0.07113191	0.65268346
0.62042473	0.57378446	0.64956165
0.10365991	0.31608163	0.64536196
0.15616528	0.8226332	0.60388089
0.13175741	0.08017239	0.12867956
0.1523542	0.58138482	0.1235932
0.6319382	0.33494684	0.14799642
0.66870561	0.83293131	0.15410712
0.60170471	0.0642436	0.65293766
0.6144321	0.5779824	0.66238852
0.1028568	0.31954933	0.64008507
0.16005812	0.82174323	0.59628945
0.12307466	0.08027529	0.1278879
0.15265131	0.58505639	0.12440685
0.62796754	0.33561246	0.14979814
0.66865648	0.83406358	0.15865189
0.61553164	0.06950975	0.65346077
0.61238014	0.58064798	0.67183189
0.10531789	0.32516136	0.63031035
0.14620862	0.81929291	0.59463073
0.12692609	0.0797029	0.12357521
0.1454194	0.58310211	0.1309046
0.62510946	0.33264798	0.15475197
0.66978692	0.83538863	0.15480074
0.6319909	0.07407079	0.65410783
0.60972672	0.57950264	0.65676343
0.10587352	0.32499607	0.6194952
0.13472994	0.81870324	0.59576452
0.13199503	0.07994722	0.11538948
0.1412058	0.58149797	0.1229638
0.62370093	0.32816593	0.14885558
0.67184005	0.83099998	0.14726236
0.63162348	0.06961421	0.64974919
0.60754893	0.57569852	0.63973924
0.09906577	0.32177321	0.6119396
0.1403726	0.82110945	0.60171383
0.12878562	0.08059823	0.11098539
0.14465547	0.58437678	0.10272836
0.62710883	0.32693438	0.14363359
0.67445191	0.82456323	0.14328135
0.61259331	0.06303886	0.64878519
0.6089656	0.57355735	0.64620429
0.08879154	0.32428577	0.6109239
0.14428626	0.82335689	0.60524274
0.11756367	0.08219909	0.11459811
0.1535577	0.58700978	0.09773326
0.63093305	0.32867693	0.14998317
0.67183973	0.8244323	0.14149283
0.59966415	0.06194307	0.65663966
0.61507213	0.57344806	0.6493292
0.084898	0.32995799	0.61072845
0.13093908	0.82267495	0.60181167
0.1169218	0.08472303	0.11807868
0.1551099	0.58772998	0.10061257
0.62852733	0.32841393	0.1512093
0.6645087	0.82923229	0.13759119
0.613982	0.06720595	0.66481619
0.62240553	0.57141296	0.63807974
0.09440257	0.33440839	0.60665836
0.1213998	0.81962232	0.59543522
0.12628946	0.08753432	0.11610081
0.14860231	0.58610881	0.09453633
0.62574375	0.32548123	0.14476082
0.65815587	0.83071952	0.1298457
0.63450797	0.07581527	0.65813166
0.62574012	0.56701365	0.63038363
0.10680524	0.33373276	0.60230486
0.13009399	0.82219378	0.59362032
0.12756237	0.08870643	0.11620304
0.14383523	0.58592898	0.08514977
0.62789182	0.32342254	0.13977303
0.65223999	0.82462352	0.12281862
0.62888503	0.07900539	0.64639778
0.62528179	0.56480431	0.63546668
0.10769874	0.32954266	0.5993095
0.1465599	0.82771228	0.59959674
0.12191378	0.0866142	0.12095126
0.14495115	0.58732481	0.08201796
0.63108968	0.32347266	0.14052312
0.65152597	0.81773365	0.12424859
0.60350631	0.07118432	0.64555552
0.625568	0.56547192	0.64123866
0.10205942	0.32708121	0.5980482
0.15384167	0.83067426	0.60054352
0.11864858	0.08382138	0.12289939
0.14585641	0.58771384	0.08494899
0.63076837	0.32390281	0.14283019
0.65653635	0.81837425	0.12956112
0.59462063	0.06370423	0.65681453
0.62389883	0.56499232	0.63828584
0.10321859	0.32675215	0.59676982
0.15041919	0.83074454	0.59803896
0.1238509	0.08233126	0.11951589
0.13873044	0.58446906	0.08840854
0.63091582	0.32279848	0.13873128
0.65462619	0.82364557	0.12709528
0.60626562	0.06923021	0.66137965
0.62055896	0.56068379	0.63029858
0.11564238	0.32600684	0.59784704
0.14821752	0.83002571	0.59985977
0.13000302	0.08334665	0.12051477
0.1305242	0.57815214	0.08822385
0.63243507	0.32139071	0.12778109
0.64613725	0.8252758	0.11990705
0.62311212	0.07461919	0.65269507
0.62359893	0.55581949	0.62748297
0.12734897	0.3245186	0.6020367
0.15011781	0.83113449	0.60226363
0.13266953	0.08385084	0.12852879
0.13077367	0.57257796	0.0859885
0.63262836	0.32190833	0.12044751
0.64142589	0.82017948	0.12292484
0.61706039	0.06827956	0.64563327
0.62740121	0.55511365	0.63010461
0.12799118	0.32406506	0.60693743
0.15122001	0.8321565	0.60269216
0.13242413	0.08145915	0.13006644
0.13469706	0.57072042	0.09077887
0.63257137	0.32352413	0.12238888
0.64048016	0.81582977	0.13219716
0.59968185	0.0594239	0.6488835
0.62859055	0.55878405	0.63139866
0.12490461	0.32333388	0.60826758
0.14930617	0.82787136	0.60444369
0.13120644	0.0794127	0.12691927
0.13752271	0.57304268	0.10695212
0.63208369	0.3227617	0.13251048
0.6387655	0.81869526	0.12999142
0.60525839	0.05864715	0.65345803
0.6330985	0.56224696	0.62751246
0.12477979	0.32173311	0.6070935
0.14568248	0.82141616	0.60487886
0.1350248	0.08122962	0.12898939
0.13974473	0.57412824	0.11570156
0.62827192	0.31908138	0.14322405
0.63562997	0.82426703	0.11633825
0.63064292	0.06268965	0.64717059
0.63898571	0.56276489	0.62204826
0.1295356	0.3217619	0.60547915
0.14172371	0.82020327	0.60199711
0.14147012	0.08202835	0.13217367
0.14108954	0.57307138	0.10688933
0.62380139	0.31658387	0.14425862
0.63508197	0.82194239	0.10852677
0.6421239	0.06473374	0.63295238
0.63805015	0.56282833	0.62125164
0.13540563	0.32079627	0.60839182
0.13506696	0.82069397	0.60261726
0.14615388	0.07747937	0.12582987
0.14227482	0.57258759	0.10001731
0.62332505	0.31588221	0.13877109
0.6373356	0.81269868	0.11124695
0.63128779	0.06281912	0.6280196
0.62943049	0.56641668	0.62126362
0.134109	0.31585126	0.61550094
0.12873284	0.81798978	0.6091108
0.14693648	0.0704054	0.11497597
0.1390646	0.57166667	0.10645163
0.62472912	0.31415104	0.13831299
0.64016001	0.81229645	0.11513048
0.61722359	0.06150148	0.63818566
0.62380842	0.57137767	0.61623776
0.12709115	0.31140888	0.62242217
0.12701511	0.81535521	0.61592764
0.14327204	0.06759052	0.11510205
0.12986723	0.57048719	0.11911493
0.62503649	0.31063538	0.13938674
0.63648855	0.81845377	0.11149693
0.61799032	0.06215408	0.63937904
0.62974676	0.57157496	0.60888885
0.12332961	0.31240654	0.62952094
0.12506297	0.81416522	0.6201398
0.13704176	0.06986147	0.12295771
0.12020414	0.57063555	0.12165834
0.62475686	0.30700874	0.13048837
0.627832	0.81887075	0.11019336
0.63359512	0.06521847	0.62440369
0.63926741	0.56464462	0.60221514
0.12525209	0.3146868	0.63438701
0.11792077	0.81289279	0.62188666
0.13327541	0.06956204	0.12764839
0.11826624	0.56956087	0.1117368
0.62636817	0.30815882	0.11593052
0.62037988	0.81163441	0.11789237
0.64293184	0.06751398	0.61986028
0.63645204	0.56143257	0.59825801
0.12799945	0.31128477	0.64010601
0.10649671	0.8121345	0.62338378
0.13405074	0.06395208	0.12164255
0.12126089	0.56701065	0.10894973
0.63069761	0.31275539	0.10827488
0.61587033	0.80504108	0.1245093
0.63993415	0.06201753	0.62893797
0.62316299	0.56606135	0.59722056
0.12698181	0.30463061	0.64541659
0.09751272	0.81216038	0.62567691
0.13458415	0.05958804	0.11351297
0.12355588	0.56975616	0.12256104
0.63342221	0.31384969	0.1063978
0.61238197	0.80551301	0.12079503
0.6350636	0.05295275	0.62626508
0.62069914	0.56440374	0.59501367
0.12592501	0.30363739	0.64161915
0.09854415	0.81210929	0.62602402
0.12964561	0.06395796	0.11386516
0.12191811	0.56943489	0.13574114
0.63231535	0.30632592	0.09771964
0.60869929	0.81100458	0.1099326
0.63871578	0.05381939	0.61122845
0.63143112	0.55711937	0.5893557
0.12976335	0.30716873	0.63690046
0.10047591	0.8117937	0.61981791
0.12289456	0.06964332	0.11434258
0.12228935	0.56410981	0.13647247
0.63312934	0.29798426	0.09334687
0.60618658	0.81139467	0.10279785
0.64437673	0.06167199	0.59626875
0.64187862	0.55674322	0.59185337
0.13792656	0.30863989	0.63992861
0.09290817	0.81060333	0.61632518
0.12797756	0.06646053	0.10529848
0.12071868	0.56356157	0.13900446
0.63509472	0.30576081	0.10389226
0.60783797	0.80339185	0.10452285
0.638608	0.0641346	0.59198003
0.63215706	0.56091699	0.59710884
0.14336839	0.30647506	0.6395564
0.08843684	0.80844463	0.6303252
0.13571387	0.05793092	0.10013496
0.11293459	0.5629086	0.14654485
0.63208856	0.31184435	0.1093459
0.61513671	0.79908111	0.10655489
0.62297763	0.05862139	0.59649059
0.61591777	0.56231607	0.59108022
0.14042101	0.30448383	0.6299908
0.09880238	0.80615666	0.64953866
0.13096379	0.0579695	0.10743333
0.10654473	0.559205	0.15231519
0.6244413	0.30387059	0.1007482
0.61692872	0.80566788	0.10375816
0.61893209	0.05477929	0.59577729
0.6099805	0.56006089	0.59366519
0.13236447	0.3044776	0.62340586
0.11518651	0.80464213	0.64575658
0.11940664	0.0597448	0.12744925
0.1061602	0.55768019	0.15218184
0.62282191	0.29756353	0.0885553
0.60575458	0.81260938	0.09474594
0.62571737	0.05680918	0.58447274
0.62030171	0.55620274	0.6039436
0.12589255	0.3063707	0.6236485
0.12341956	0.80368896	0.63391398
0.11046202	0.0570566	0.14152079
0.11044312	0.55758889	0.15062046
0.62698482	0.30397713	0.08319436
0.59223018	0.80938716	0.09034794
0.63491417	0.05921252	0.57134061
0.63111989	0.55336391	0.60980758
0.12849255	0.30791115	0.62475015
0.11752129	0.80252874	0.63876574
0.11123962	0.05149049	0.14181012
0.11013116	0.55737266	0.15585055
0.62231737	0.31030134	0.09191289
0.5857555	0.80098703	0.09569125
0.64204555	0.0558157	0.56689011
0.62632263	0.55157189	0.60443052
0.14175328	0.30840839	0.62195934
0.11291036	0.80256959	0.65426204
0.11994756	0.0511173	0.13162037
0.10577863	0.55745584	0.16551027
0.61669426	0.3079596	0.10281679
0.58519165	0.79879662	0.09254839
0.64690195	0.05153407	0.5645013
0.61405408	0.55030308	0.59906531
0.15044841	0.30802568	0.62416152
0.1186057	0.80413131	0.66198654
0.12399143	0.05485816	0.12021064
0.10193162	0.55567395	0.16697504
0.62135652	0.30215521	0.09648886
0.59088339	0.80448979	0.08293962
0.65081641	0.05403582	0.56505433
0.61471725	0.54882062	0.60022818
0.14825026	0.30747247	0.64007747
0.12668438	0.80419746	0.65808503
0.11881094	0.05993196	0.12029542
0.10878164	0.55248337	0.16067012
0.62828311	0.29890178	0.08211014
0.59795314	0.81006661	0.08237641
0.64845498	0.05876267	0.57530176
0.6332117	0.54799525	0.60502981
0.14569758	0.30732249	0.66017151
0.1254985	0.80511562	0.65388695
0.11065226	0.06247791	0.12760959
0.11441464	0.55116839	0.15208325
0.61835416	0.30123511	0.08578836
0.59684788	0.80539733	0.09032549
0.6463944	0.05967102	0.57899312
0.64604822	0.54976218	0.60807695
0.15059068	0.30606091	0.65835723
0.11688014	0.80498695	0.65964304
0.10648866	0.05730691	0.13039295
0.11193054	0.55394344	0.14557651
0.60910734	0.30450131	0.10041834
0.58762068	0.79703607	0.09494368
0.65286661	0.05411	0.56689173
0.63431492	0.55380451	0.60643391
0.15656241	0.30399612	0.64007697
0.10920201	0.80256006	0.67173755
0.11519725	0.05383645	0.12608335
0.10539726	0.5583248	0.14422921
0.60531275	0.30418451	0.09409025
0.57843007	0.79817682	0.09470785
0.6592034	0.04662729	0.55928425
0.61650633	0.55660419	0.60297552
0.15212047	0.3035872	0.62948769
0.10362514	0.80267142	0.67570557
0.12300758	0.05830077	0.12226132
0.10329343	0.55863737	0.14962046
0.6085971	0.30261212	0.07177911
0.57671641	0.80627649	0.09725305
0.66033376	0.04653568	0.56656051
0.61773166	0.55502477	0.60339719
0.14536205	0.30524301	0.63374252
0.09761828	0.80512741	0.66193865
0.12167253	0.06057979	0.12034631
0.11001582	0.55552588	0.15765923
0.61388145	0.30502111	0.07703637
0.58016345	0.80875389	0.10496978
0.64189567	0.05165774	0.56846196
0.62704639	0.55247068	0.60994769
0.14380163	0.30627009	0.63682439
0.09064497	0.80743051	0.65243242
0.11829669	0.05414901	0.12035796
0.11736845	0.55475043	0.15911493
0.61537204	0.3124138	0.0999397
0.57895002	0.80509616	0.11384393
0.62232283	0.05249633	0.56185814
0.62562231	0.5531757	0.61809754
0.14263132	0.30502079	0.634811
0.0858655	0.80829164	0.65749628
0.12673134	0.04551204	0.11936294
0.11419551	0.55514569	0.15925206
0.61334533	0.31254659	0.10693265
0.57610721	0.80699435	0.11867028
0.61979961	0.05060021	0.56158968
0.61990855	0.55780345	0.62160764
0.13680788	0.30477782	0.63882614
0.08756656	0.80765348	0.66261416
0.13658991	0.04398131	0.11786188
0.10719783	0.55302307	0.16063055
0.61651128	0.30769008	0.09701244
0.58034939	0.81717756	0.11909064
0.6295197	0.05333192	0.57358847
0.62142324	0.56117354	0.61764732
0.1289095	0.307507	0.64245518
0.09580288	0.80772418	0.65415542
0.13012074	0.05283346	0.12172866
0.10931934	0.54992954	0.15241411
0.62464265	0.30532294	0.09390782
0.58779601	0.82059243	0.1210505
0.6339875	0.05762772	0.5830374
0.62816194	0.56001404	0.61123936
0.12666271	0.31003495	0.64121258
0.10198847	0.81060838	0.64094491
0.11297062	0.05971659	0.12819035
0.11346309	0.55127461	0.14245244
0.6274343	0.30483042	0.107389
0.59411509	0.81274791	0.12718955
0.62636773	0.05835836	0.59113581
0.63199757	0.55825535	0.61667878
0.13250044	0.30955451	0.63954466
0.10432407	0.81486182	0.64019555
0.11263149	0.05421417	0.12887485
0.11184118	0.55603724	0.13698023
0.62146159	0.30425959	0.12026103
0.5996089	0.80524694	0.13303324
0.6196358	0.05645789	0.60426748
0.62881779	0.5589602	0.62642992
0.14045882	0.30706748	0.63404726
0.10640338	0.8158125	0.64541621
0.12178928	0.04706219	0.12353374
0.10762531	0.55712058	0.13429577
0.61560861	0.30609012	0.117102
0.60111119	0.80550269	0.13931616
0.62628295	0.05688141	0.61336871
0.62205312	0.56180011	0.62687492
0.14453541	0.30497368	0.62506352
0.11126255	0.81315987	0.63893409
0.12383281	0.05387433	0.12129131
0.10930853	0.55185569	0.13395299
0.62047119	0.31002524	0.10402687
0.60292929	0.81065457	0.14358051
0.63712874	0.0603233	0.61263097
0.61967341	0.56313927	0.63266715
0.13983771	0.30709454	0.62108168
0.12086255	0.81003844	0.62415213
0.11837135	0.06496807	0.13033856
0.11872048	0.54972636	0.1351607
0.62804788	0.31218423	0.10561955
0.61202181	0.81280251	0.13831681
0.62843638	0.06303644	0.60874866
0.62591923	0.55947973	0.63956909
0.12887836	0.31045068	0.62275233
0.13051053	0.81008293	0.61925903
0.11856898	0.06613597	0.13996525
0.12246221	0.55215324	0.13009388
0.63321943	0.31500387	0.12992379
0.62150374	0.80803079	0.12879828
0.61058472	0.06516084	0.61202389
0.63813446	0.55539024	0.6380609
0.12505731	0.31084359	0.62224052
0.13393119	0.81059337	0.62270179
0.12037048	0.05585186	0.13833652
0.11687441	0.55380165	0.12446472
0.63376223	0.3172948	0.14282736
0.62534497	0.80651343	0.12705798
0.61181485	0.06750084	0.62230679
0.63981259	0.56159388	0.6365135
0.12969292	0.30818621	0.61757892
0.13235789	0.80605303	0.62162344
0.11982731	0.05219181	0.12895648
0.11501688	0.55349278	0.12354182
0.6301269	0.31732126	0.13093729
0.62641546	0.81434356	0.13337544
0.62810273	0.06710705	0.62920768
0.62498489	0.56868487	0.63428482
0.12651349	0.30612595	0.61633231
0.13162144	0.80083505	0.61555123
0.11730221	0.06345963	0.1209278
0.12151913	0.55477964	0.11931429
0.6308123	0.31386964	0.12349606
0.628528	0.8161081	0.13435015
0.63419371	0.06406939	0.63202624
0.61323722	0.56547532	0.62924535
0.11831359	0.30776563	0.62435035
0.13145173	0.80151548	0.61017495
0.1178058	0.07469722	0.11694887
0.12326437	0.55809131	0.11027022
0.63380073	0.309383	0.13648991
0.62978978	0.80839949	0.12567964
0.62215804	0.06314567	0.63754279
0.62052224	0.55858488	0.62361526
0.11090333	0.31071037	0.63805302
0.12680506	0.80360705	0.6066651
0.12674664	0.07081004	0.11128158
0.1172649	0.56129056	0.10231263
0.63311958	0.31024666	0.1558968
0.63048328	0.80049262	0.12451977
0.6197413	0.06524927	0.64419311
0.62675594	0.55733567	0.61992042
0.10493362	0.3094892	0.6434797
0.1214037	0.80376656	0.60235713
0.13864277	0.06414423	0.11054985
0.11917643	0.56435976	0.09913902
0.62272751	0.31681673	0.16387163
0.629173	0.80354918	0.13700332
0.63210566	0.06764516	0.64624435
0.61502266	0.56181523	0.62296787
0.10413927	0.30882646	0.63622619
0.12319599	0.80649137	0.59777224
0.14056418	0.06868041	0.1156964
0.13707723	0.56772999	0.10041472
0.61020454	0.31772524	0.15910902
0.6260348	0.81648131	0.14399434
0.63569279	0.06636422	0.6470458
0.59880034	0.56434691	0.63039967
0.10830157	0.31503758	0.62899219
0.12746815	0.81235591	0.59525489
0.13328248	0.08085997	0.12354468
0.1488381	0.57074184	0.10483625
0.60650883	0.31276478	0.15379868
0.62678643	0.82229236	0.1325242
0.62119374	0.06169264	0.64932614
0.60137698	0.56320974	0.63342608
0.10831177	0.32213449	0.6290341
0.12787127	0.81792515	0.59299314
0.12540742	0.08514452	0.13139694
0.14449834	0.5742757	0.110845
0.61160109	0.31068925	0.16089363
0.63850785	0.81517086	0.11790454
0.60364857	0.05960179	0.65150499
0.6147785	0.56209821	0.62989154
0.10350832	0.32088286	0.63019239
0.1282879	0.82182074	0.59165372
0.12991194	0.07540751	0.13773514
0.13974758	0.57804246	0.11191681
0.6138269	0.3153276	0.17171822
0.65097713	0.80995584	0.11701885
0.60400637	0.06057961	0.65810014
0.6213736	0.56246933	0.62964959
0.10027976	0.31832367	0.62642445
0.13318569	0.82269038	0.59446915
0.14560483	0.06522883	0.13905332
0.1439087	0.58092301	0.10811465
0.6114998	0.32068987	0.1700453
0.64707109	0.81153908	0.12437148
0.61446891	0.06219905	0.6698239
0.61813103	0.56448203	0.63434836
0.10257679	0.3197998	0.61629926
0.13845557	0.82179993	0.59979385
0.15470037	0.06297613	0.12724222
0.15006948	0.58183903	0.10682093
0.61110506	0.31884518	0.15918543
0.63977119	0.81647074	0.12925427
0.618122	0.06100335	0.67551664
0.6134377	0.5656238	0.63778291
0.10611904	0.32468534	0.61037638
0.13836734	0.8247896	0.60291702
0.14180425	0.06804657	0.13111483
0.14975818	0.58198754	0.10951661
0.61993944	0.31312459	0.15392739
0.64778875	0.82191821	0.12852087
0.60124604	0.05875347	0.67801432
0.61651272	0.56442228	0.63713165
0.10732191	0.32794856	0.61608503
0.13730692	0.82975736	0.60179189
0.12177047	0.07600879	0.15638475
0.1481302	0.58374326	0.11226491
0.63513991	0.31308981	0.16119936
0.65927987	0.82394606	0.12798785
0.58266413	0.0588581	0.68395674
0.63085937	0.56237964	0.63473231
0.10451302	0.3261981	0.62598025
0.14497344	0.8305038	0.59993996
0.12023114	0.08467341	0.15783688
0.15212362	0.58712495	0.10770728
0.63952756	0.31843462	0.17045043
0.66247866	0.8216732	0.13278198
0.58074408	0.06370126	0.69036915
0.64788984	0.56368852	0.63366509
0.10298811	0.32471449	0.62644956
0.15449047	0.82978618	0.60793407
0.11977054	0.08486103	0.14251721
0.15880889	0.58970615	0.0983223
0.63424069	0.32254849	0.16732958
0.66029723	0.82227116	0.13876239
0.5935693	0.06958137	0.69266707
0.64575976	0.56675522	0.63822507
0.11276634	0.32765386	0.6169244
0.15424961	0.83431024	0.61620131
0.11051072	0.07635803	0.13808595
0.15811959	0.59004262	0.09763863
0.63531703	0.3198437	0.15448571
0.65966607	0.8231246	0.14178463
0.60449474	0.0704494	0.69115527
0.63558603	0.56865721	0.64249625
0.12661385	0.33100039	0.6131607
0.14334581	0.8421472	0.61682412
0.10490139	0.07317312	0.14964753
0.14699507	0.58985099	0.1071316
0.63981345	0.31333343	0.14782057
0.66780502	0.82427589	0.14029181
0.60210307	0.06680006	0.68778878
0.64160519	0.57064461	0.63861906
0.12312227	0.33106624	0.61671992
0.1395855	0.84293573	0.62829078
0.10327073	0.08375443	0.15826161
0.13504819	0.5893059	0.11895547
0.63637057	0.31372964	0.1511328
0.67142386	0.82463179	0.13958606
0.59505524	0.061053	0.68398782
0.65070351	0.57338848	0.63577343
0.11919061	0.32855688	0.62486107
0.14804546	0.83524928	0.62738129
0.10830127	0.09232723	0.14876676
0.13251075	0.58746832	0.12344796
0.63102616	0.32492582	0.15440976
0.66549976	0.82146826	0.14257651
0.60041746	0.06167345	0.67948821
0.64734164	0.57555758	0.64505316
0.12550413	0.32749562	0.62827262
0.15400668	0.82684729	0.61068611
0.11887174	0.08403459	0.1266118
0.1432876	0.58415986	0.11902729
0.6330885	0.3295109	0.14945565
0.66059228	0.81908173	0.1450835
0.61260091	0.06877414	0.68152393
0.64496676	0.57295711	0.65564509
0.12947035	0.33035128	0.62975142
0.15241274	0.8270147	0.6009452
0.12572526	0.0734647	0.10767186
0.1487375	0.58096996	0.11619162
0.64179902	0.32524176	0.13989622
0.65820764	0.8237494	0.14434819
0.60779326	0.07426432	0.68652767
0.64900196	0.56895087	0.65786442
0.12779922	0.33354059	0.62893182
0.14990803	0.83463409	0.60559831
0.12416773	0.0761816	0.10832308
0.14025258	0.58059729	0.11902012
0.64844167	0.31976378	0.13689623
0.65440365	0.82247076	0.14410436
0.59674512	0.07777631	0.68078426
0.647325	0.56877832	0.65380981
0.12069574	0.33271697	0.62847282
0.15250137	0.83712003	0.61675307
0.11829736	0.08324823	0.12831572
0.13755854	0.57987331	0.12078838
0.6392918	0.3197396	0.14532258
0.6543874	0.81919236	0.14617584
0.59995179	0.07760245	0.66729562
0.63314043	0.57333242	0.65139779
0.11204526	0.33025328	0.628758
0.15769983	0.83257862	0.62351548
0.11589784	0.08160711	0.14586062
0.14615481	0.57510993	0.11601766
0.62111991	0.32263676	0.15839546
0.65897748	0.82311891	0.14396096
0.62420139	0.07505908	0.65400189
0.62095267	0.57790118	0.65004163
0.10632446	0.3324654	0.62625637
0.15783535	0.83387443	0.62028435
0.12336918	0.07124296	0.13919325
0.13672236	0.56930953	0.10836732
0.61677298	0.32254896	0.16151531
0.65952202	0.82713461	0.13337366
0.64847953	0.07544909	0.64171512
0.6199905	0.57762172	0.64413778
0.10959043	0.33615227	0.61997441
0.14845074	0.83768127	0.61049018
0.13612489	0.06650367	0.12313278
0.11588003	0.57064296	0.10846394
0.62185088	0.31860171	0.15866851
0.657803	0.82878809	0.13160595
0.64805571	0.07869476	0.63438343
0.62123775	0.57543675	0.633918
0.12331344	0.3358416	0.61441375
0.13247731	0.83473197	0.60576723
0.14539224	0.07131527	0.12578042
0.11045805	0.57299989	0.11614064
0.62241329	0.32036872	0.15255686
0.65981296	0.82514624	0.13853151
0.63029508	0.08082837	0.63213133
0.62184943	0.57891869	0.62823175
0.13579637	0.33085982	0.61374727
0.12607456	0.82669035	0.61013585
0.14809658	0.0726342	0.13924505
0.11950415	0.57088454	0.1224226
0.6086154	0.32503477	0.14700376
0.65906255	0.81851303	0.13352445
0.62386356	0.07877647	0.63007116
0.62123642	0.57842457	0.63088168
0.13382294	0.32643507	0.61308827
0.13863802	0.82184825	0.61304698
0.15173379	0.06758325	0.13636566
0.12812293	0.56866695	0.12557908
0.59692773	0.31999576	0.14464511
0.64632158	0.81562614	0.12141367
0.63543743	0.07702346	0.63005445
0.61891846	0.57095035	0.63555201
0.12402456	0.32961924	0.60991727
0.14723408	0.82463924	0.6045585
0.152141	0.06743053	0.11925125
0.12765781	0.57214437	0.13050261
0.60105847	0.31190092	0.13763565
0.63193663	0.81912265	0.11840811
0.64494165	0.07922381	0.63547686
0.62073655	0.56917908	0.63398301
0.12388352	0.32829261	0.60719973
0.13690385	0.82883063	0.59854558
0.14428991	0.07313445	0.10817309
0.12443883	0.57649816	0.13649317
0.61648578	0.31128642	0.12776263
0.62730114	0.82145032	0.12224801
0.63934562	0.08240896	0.63353227
0.62587227	0.5709205	0.62891608
0.13170171	0.3224231	0.60879372
0.12336756	0.82818787	0.61269982
0.13863489	0.07825159	0.11621769
0.12377624	0.57587854	0.13806491
0.62188215	0.31458143	0.12424438
0.62805536	0.81780151	0.12340189
0.63132111	0.08381815	0.63108457
0.62958127	0.57120241	0.62687709
0.13306876	0.32530391	0.61860105
0.12110482	0.82323909	0.62696484
0.13310638	0.07798592	0.13058848
0.12770177	0.57345593	0.13135026
0.61301244	0.31725819	0.1235947
0.62523081	0.81565625	0.1141596
0.63947861	0.08174066	0.63093843
0.62946802	0.57117941	0.62557095
0.12649047	0.32988001	0.62539659
0.12842973	0.82202161	0.6271783
0.12535713	0.07518732	0.13049498
0.13038857	0.57033672	0.12432307
0.61485776	0.31735517	0.1246364
0.61949438	0.81878973	0.10483011
0.65450125	0.07661318	0.6252136
0.62780593	0.57237738	0.61983885
0.12202908	0.32910524	0.62278798
0.1332941	0.82467931	0.61962075
0.1207898	0.07345426	0.11316499
0.1238435	0.57125655	0.12727799
0.62814279	0.31799875	0.12414599
0.61740614	0.81923901	0.11058508
0.65155092	0.07112621	0.617924
0.62772122	0.57347056	0.6130012
0.1218353	0.32081328	0.623528
0.13285801	0.82346842	0.61420244
0.12257255	0.07543498	0.10682481
0.11984009	0.57302011	0.12909883
0.63474601	0.32302961	0.1215276
0.61927267	0.81932292	0.12496771
0.6333303	0.06592757	0.61272679
0.63103431	0.5730997	0.61782733
0.12612391	0.31459065	0.62964574
0.1284481	0.81774167	0.61742248
0.12726478	0.07562379	0.1123759
0.12413773	0.56979165	0.12131401
0.63024434	0.3263247	0.11471336
0.6185764	0.82032693	0.12648076
0.62350923	0.06115128	0.6049156
0.63160259	0.57064351	0.62121931
0.13139112	0.31651382	0.63621881
0.12740153	0.8142424	0.62462789
0.12650746	0.07360495	0.11985714
0.12407022	0.56666521	0.11606717
0.62303369	0.32443657	0.10355136
0.61556302	0.81962882	0.11788092
0.63004646	0.0593771	0.59360685
0.63085327	0.56766063	0.61572557
0.1328438	0.32102223	0.63750018
0.13791935	0.81559462	0.62522272
0.12446953	0.0728529	0.12055218
0.12127714	0.56870238	0.12124275
0.62148829	0.31843226	0.09215841
0.61366563	0.82272437	0.11572643
0.64054857	0.06077448	0.58683036
0.6366119	0.56456558	0.61309098
0.13677672	0.31966744	0.63169895
0.14585929	0.8193309	0.625788
0.12114518	0.07119852	0.11647052
0.12615784	0.57249311	0.12395452
0.6285593	0.31397852	0.08847667
0.61580687	0.82737525	0.12422083
0.63996994	0.06205106	0.58824017
0.6417023	0.56123658	0.6134319
0.14130383	0.31258161	0.62596997
0.14205919	0.82183178	0.63625545
0.11903102	0.06895596	0.12214892
0.13895141	0.57460989	0.1174226
0.64107459	0.31555909	0.09552624
0.61970362	0.82800887	0.13081132
0.62998972	0.0616058	0.59143727
0.63958738	0.5595542	0.60881438
0.14296889	0.3124361	0.62623334
0.13596796	0.81858443	0.6467196
0.11910404	0.06633675	0.13650181
0.14918257	0.57411406	0.11361204
0.64581146	0.32069826	0.10030354
0.62181337	0.8226835	0.12732678
0.63062657	0.0618145	0.58789858
0.63478737	0.56074691	0.6010424
0.14001329	0.32284678	0.62523321
0.13446213	0.8118324	0.64544242
0.12145844	0.06311471	0.13438714
0.14602544	0.57336425	0.11887763
0.6375064	0.32351701	0.09606506
0.62352692	0.81798256	0.12051699
0.65011725	0.06212943	0.58275124
0.63494917	0.56246093	0.59825921
0.13739987	0.32589688	0.62079346
0.13307491	0.80850112	0.63562056
0.1267605	0.06163246	0.11834298
0.13274415	0.57300603	0.12461436
0.6328884	0.32246268	0.09427852
0.62633437	0.81943256	0.11499745
0.65646756	0.06036631	0.58420572
0.63674366	0.56232576	0.60095113
0.13925616	0.31507401	0.62321192
0.1242354	0.81085498	0.63512213
0.13056522	0.06208876	0.11282018
0.11804573	0.57103108	0.12534001
0.63603023	0.32243232	0.098643
0.62426304	0.82307651	0.11379354
0.64049983	0.05671199	0.59242557
0.63410125	0.56266258	0.60619456
0.1453152	0.3057351	0.63212453
0.11392241	0.81249084	0.6456949
0.13432181	0.06432415	0.11955899
0.11576175	0.56822699	0.12865521
0.63472722	0.32555592	0.09560954
0.61411479	0.82284572	0.11699496
0.63529282	0.05498224	0.60323009
0.6291207	0.56504564	0.60926674
0.14955463	0.30688462	0.63940084
0.1121464	0.81215449	0.65558508
0.14001877	0.06795367	0.13134082
0.12115782	0.56794438	0.13997384
0.62749061	0.32686687	0.08929351
0.6115063	0.82034662	0.11282293
0.65251803	0.05630975	0.60366739
0.62662846	0.56664959	0.60944731
0.14581446	0.30998774	0.63270144
0.11262353	0.81457369	0.65838325
0.14177298	0.07118548	0.13823136
0.11861732	0.57060556	0.15021782
0.6214062	0.32273357	0.08999137
0.60966661	0.81923655	0.10430297
0.67171293	0.06176031	0.59355657
0.63188804	0.56516961	0.61060601
0.14007746	0.30984838	0.614532
0.10957329	0.81954286	0.65820934
0.1352359	0.07160734	0.13147334
0.11066007	0.56907768	0.14778345
0.62318681	0.31616822	0.09276188
0.60007678	0.82051869	0.1008269
0.66966585	0.06921033	0.59371436
0.63810357	0.56457431	0.61274187
0.14295553	0.30753505	0.60567654
0.10611501	0.82222229	0.65697836
0.12867865	0.06903343	0.12570281
0.10778489	0.56216254	0.14130744
0.63260451	0.31534567	0.09189652
0.59439495	0.81905469	0.10580624
0.64733451	0.07508249	0.60538699
0.64008305	0.56218374	0.61333574
0.14522803	0.30860774	0.61990389
0.10671856	0.81797811	0.65690125
0.13334712	0.06801959	0.13331568
0.10810918	0.56736847	0.14266725
0.64196274	0.31972566	0.08985968
0.59719198	0.81463165	0.10852255
0.62296474	0.07530976	0.6021282
0.62778744	0.56021744	0.60755964
0.13915733	0.31668635	0.63778839
0.11012023	0.80999587	0.65208824
0.14655472	0.07216127	0.13330828
0.11568074	0.57032115	0.1575237
0.64320125	0.32167732	0.09359025
0.5971989	0.81147076	0.10734374
0.62662441	0.07160707	0.58481372
0.61228507	0.56560751	0.61041878
0.13541611	0.32412643	0.63983192
0.10975491	0.80776581	0.64045048
0.14692257	0.07012118	0.12298993
0.12612837	0.56235788	0.16176847
0.6370949	0.3188452	0.09784794
0.59227951	0.81106737	0.11064124
0.63221049	0.07149939	0.57562781
0.61115437	0.57051999	0.6256323
0.14245925	0.3169781	0.62725837
0.10579253	0.8114203	0.639418
0.13688006	0.06232218	0.11551363
0.12383251	0.55704974	0.15058949
0.62809111	0.31220807	0.09272938
0.58767535	0.8125977	0.11631302
0.62995141	0.07750878	0.59593593
0.61601143	0.5706034	0.62956556
0.14927346	0.30873362	0.61904885
0.10157486	0.81364158	0.64542682
0.13191999	0.06332381	0.12674092
0.11254272	0.56494063	0.14482915
0.62376812	0.30759107	0.08645176
0.59071137	0.81317593	0.12243811
0.6317346	0.07776419	0.61065097
0.61515357	0.5687487	0.62339104
0.14689523	0.31322013	0.62756866
0.09296716	0.80745192	0.64380282
0.13651872	0.07063555	0.14458931
0.10442619	0.57223925	0.14988012
0.62991945	0.30995974	0.09048864
0.60267758	0.8149118	0.12696526
0.63673924	0.07176152	0.60067715
0.60799159	0.56736847	0.61542131
0.14130755	0.32053839	0.64170658
0.08590672	0.80360448	0.63440375
0.14438953	0.07099524	0.13704799
0.10809681	0.56811518	0.15207073
0.64269652	0.31415307	0.10002331
0.61054839	0.8172579	0.12837319
0.6402143	0.07046331	0.58405939
0.60193431	0.5677393	0.60915888
0.14140273	0.31873128	0.64310516
0.09052077	0.80824643	0.62704273
0.14594367	0.06527058	0.11975818
0.11955993	0.55595181	0.1459897
0.64632814	0.31310801	0.10382116
0.60365805	0.81677127	0.12475755
0.63992192	0.07434555	0.59314896
0.60489292	0.56983453	0.6093873
0.14424459	0.30829075	0.62859193
0.10309848	0.81550703	0.62866176
0.13768577	0.06209635	0.13268485
0.12253575	0.55238771	0.1424493
0.63813754	0.30787658	0.10478921
0.5927037	0.81304619	0.11721562
0.63381839	0.07383458	0.61885723
0.61281684	0.56991746	0.61718919
0.13917368	0.30238971	0.61542474
0.11600714	0.81763504	0.63514164
0.13177174	0.06367433	0.15508892
0.11294713	0.56062072	0.15146985
0.63724663	0.30393722	0.10960613
0.58816832	0.80833168	0.1115209
0.6210826	0.06611057	0.63459503
0.62049416	0.56708382	0.61934876
0.12973944	0.30477771	0.62522062
0.12409514	0.81437722	0.63827951
0.14078748	0.0596116	0.16675888
0.11030804	0.56485753	0.16051616
0.64084538	0.30524942	0.11519553
0.59499507	0.80690223	0.11253183
0.61375878	0.06025796	0.62414424
0.62487114	0.56653502	0.61858989
0.12270281	0.31319243	0.64660315
0.1292857	0.81211519	0.63155165
0.14022773	0.05237653	0.15410147
0.1210853	0.56052625	0.15830288
0.64134293	0.30922855	0.11926427
0.60055114	0.807167	0.11713082
0.62078371	0.05850217	0.60905383
0.63433044	0.56982343	0.61842985
0.123189	0.31834234	0.64593482
0.13187429	0.81327981	0.62054942
0.12125587	0.05280272	0.12399712
0.12155026	0.55556016	0.14608136
0.63695491	0.30967738	0.12294675
0.60338747	0.80270802	0.12011951
0.633042	0.0580286	0.61939137
0.63974194	0.5700967	0.61642368
0.12667345	0.31741215	0.63037865
0.12432262	0.81432379	0.6219831
0.10812507	0.05795057	0.10516057
0.11119328	0.56006743	0.1348406
0.62490775	0.30508533	0.12515125
0.60882188	0.80252508	0.11432174
0.63608274	0.05480966	0.63736013
0.63630825	0.56250036	0.61767575
0.12495198	0.31462274	0.62698727
0.11329343	0.81406724	0.63039717
0.11659641	0.06129274	0.11076491
0.11339574	0.56738233	0.12835237
0.61604159	0.30423097	0.12520415
0.61386192	0.80665482	0.10528065
0.62538046	0.05002529	0.63471849
0.62426089	0.55227484	0.62470986
0.11821773	0.31403392	0.64024751
0.11401423	0.81462404	0.62823528
0.13164064	0.06026465	0.11952926
0.11481437	0.56723593	0.12809719
0.61991259	0.3044079	0.12385386
0.62069884	0.80726238	0.1057847
0.6194528	0.04950105	0.62410964
0.6139583	0.54550593	0.62606661
0.11368021	0.31539328	0.64618522
0.118268	0.81769926	0.62184062
0.12510049	0.05825651	0.11913643
0.11882682	0.56089673	0.12378567
0.6239349	0.30097274	0.12916865
0.62755646	0.80443197	0.1178321
0.62567529	0.04923283	0.62760291
0.61366571	0.54491626	0.62539026
0.11870743	0.31557815	0.62848663
0.12012384	0.82062888	0.6214959
0.10588787	0.0604707	0.1124302
0.12783033	0.55696234	0.11622827
0.61480385	0.3016873	0.14390682
0.62514252	0.80088305	0.12930041
0.62251641	0.04568364	0.64585797
0.62243518	0.54558034	0.63332889
0.12683375	0.31272195	0.62148433
0.12042836	0.82153588	0.63148218
0.10455551	0.06425581	0.11096497
0.125636	0.56199748	0.11507049
0.60861652	0.30274499	0.15653828
0.61954356	0.79861742	0.13060849
0.60734867	0.04357107	0.65488503
0.62614724	0.54435528	0.64651625
0.1244332	0.31159171	0.63855793
0.11983685	0.81896922	0.63929975
0.12243936	0.06608372	0.11662599
0.12334258	0.57034801	0.11961262
0.61794923	0.29951633	0.15961199
0.61984179	0.79800149	0.12568995
0.59835159	0.04350127	0.64290643
0.61902261	0.5433072	0.64860755
0.11155782	0.31511689	0.64621451
0.11978424	0.81473667	0.63081229
0.13580161	0.06774079	0.11840187
0.1237236	0.57200659	0.12049334
0.6284566	0.295976	0.15799125
0.62513251	0.79696842	0.13249107
0.60287851	0.04373074	0.62833803
0.61511753	0.54605796	0.63918474
0.10975175	0.31876501	0.62928873
0.11978377	0.8100997	0.61170672
0.13557156	0.07001633	0.10987685
0.12743828	0.56815739	0.11689538
0.63146328	0.29747355	0.15794946
0.63227792	0.79493742	0.1439681
0.60447266	0.04494849	0.62959372
0.62237808	0.54799269	0.62667066
0.12144888	0.31742231	0.6106165
0.11871536	0.80764926	0.60816274
0.12613213	0.07201061	0.10831392
0.12939783	0.56675917	0.11474637
0.62622598	0.30181524	0.15989019
0.63763543	0.79389221	0.14453465
0.60428578	0.04746889	0.63829445
0.6258791	0.54537773	0.62242241
0.12447548	0.31362329	0.60471965
0.11716996	0.81018573	0.61921657
0.11726815	0.07346597	0.11635704
0.13014677	0.57207346	0.11840342
0.62273174	0.30259328	0.15727212
0.63946647	0.79650195	0.13727494
0.61363285	0.04895965	0.64139757
0.61798346	0.54322595	0.62322882
0.11479758	0.30999391	0.6134411
0.11917478	0.80745787	0.62602118
0.11803974	0.07447423	0.12409537
0.12990438	0.57571743	0.12387602
0.62513034	0.29867251	0.14549651
0.64357595	0.80474792	0.13452148
0.62056679	0.05096931	0.63594593
0.61299083	0.54486014	0.62195081
0.11347426	0.31012923	0.62460266
0.12518876	0.80387459	0.61427629
0.12097259	0.07397624	0.12558304
0.12960534	0.57093564	0.12646035
0.62980683	0.29651471	0.1392546
0.64817819	0.81337147	0.14182637
0.61695258	0.0531991	0.63723993
0.61793718	0.54584469	0.62633661
0.12319893	0.3137301	0.62484517
0.12817457	0.80495765	0.59889229
0.11999326	0.07390296	0.1253704
0.13444893	0.56597349	0.12596834
0.62532904	0.2991924	0.14607672
0.64433554	0.81285187	0.15092605
0.61222147	0.0523581	0.65378832
0.62160847	0.54957628	0.64035246
0.12325631	0.31513609	0.61567499
0.12655108	0.80838555	0.59715141
0.11612045	0.07409021	0.12854529
0.1425743	0.56861088	0.1200819
0.61554013	0.30768976	0.14686916
0.63550694	0.80606473	0.14496279
0.613043	0.05085363	0.66428118
0.62480602	0.55626505	0.65268768
0.10389378	0.31278193	0.61612913
0.13094324	0.81041118	0.61272496
0.11270777	0.07087024	0.12944193
0.142305	0.56958221	0.11191958
0.61535976	0.31838718	0.1374248
0.6314161	0.8072455	0.12714338
0.61488658	0.05344965	0.65673614
0.62891274	0.55484839	0.65461506
0.09614449	0.31118138	0.62976925
0.13660399	0.81126019	0.62163667
0.11303368	0.06348522	0.12289572
0.13242444	0.56739764	0.11141675
0.62248249	0.32077665	0.13288684
0.63950873	0.81785812	0.11907495
0.61611715	0.06026678	0.645713
0.63240938	0.55553443	0.64414006
0.1105506	0.31404315	0.63287832
0.13511373	0.80958239	0.60589491
0.12133631	0.05790871	0.12061766
0.12867659	0.5652692	0.11835214
0.62491778	0.31625003	0.13792807
0.64918084	0.82377745	0.12892419
0.62157715	0.0645879	0.64600724
0.6267336	0.56446385	0.63784755
0.12558201	0.31587037	0.62331274
0.13314878	0.80917429	0.58960089
0.13093383	0.05945644	0.13190379
0.13661472	0.56422102	0.11540449
0.6167457	0.3183463	0.14558822
0.65659014	0.81760381	0.14101392
0.62125181	0.06402723	0.65252604
0.62087212	0.56932699	0.64287315
0.12230097	0.31003011	0.6166936
0.13611823	0.81114476	0.59599986
0.12518198	0.06322165	0.14560429
0.14278406	0.56363836	0.10386144
0.61215335	0.32789035	0.1431246
0.66220185	0.81870311	0.13779444
0.61651695	0.06444181	0.65099122
0.62342306	0.56900145	0.6521208
0.11377752	0.30511789	0.62210025
0.13934621	0.8161646	0.61300883
0.11697099	0.06200001	0.15199889
0.13845271	0.56287536	0.10199366
0.61757012	0.33300783	0.12964716
0.66106667	0.82846105	0.12400175
0.61494951	0.07166524	0.64038732
0.62429034	0.56871205	0.6550548
0.11758561	0.30944147	0.62828032
0.13954296	0.82166192	0.62033385
0.12746449	0.05776204	0.14750825
0.13406858	0.56201264	0.11769092
0.62655206	0.32784508	0.125842
0.65763214	0.82729997	0.11639638
0.61383317	0.07603555	0.63331999
0.62247866	0.57085135	0.64793836
0.13741444	0.31725745	0.62574129
0.13737348	0.82342538	0.61122977
0.14422858	0.058603	0.13909477
0.1336612	0.5626213	0.12914301
0.62749756	0.31733829	0.13636684
0.65818553	0.82024234	0.12611351
0.608866	0.07115742	0.63706784
0.62413847	0.57431376	0.6398871
0.1438075	0.31920822	0.61908397
0.13735025	0.81943593	0.60099548
0.14741218	0.06315934	0.13298502
0.13017225	0.56515716	0.11764906
0.6261841	0.31594114	0.14351021
0.66098603	0.82221685	0.13659236
0.60572872	0.07077113	0.64545866
0.62668455	0.57725117	0.63653113
0.12709521	0.31652788	0.6208431
0.14371635	0.81710387	0.6116947
0.13678847	0.06272212	0.13098818
0.12209158	0.56621734	0.10325615
0.62824855	0.32356435	0.13722944
0.65433789	0.82985718	0.13156072
0.61040468	0.07709687	0.64991902
0.62566743	0.57767599	0.63410098
0.09989178	0.31805571	0.62920884
0.14998639	0.82279293	0.62016878
0.12739047	0.05713342	0.13721947
0.11759854	0.56572355	0.10875617
0.63078969	0.3234223	0.12797319
0.64242195	0.83388618	0.12113952
0.62057017	0.07876663	0.65148491
0.6244724	0.57607516	0.62387995
0.08245344	0.32624414	0.62932644
0.14801645	0.82909528	0.60771379
0.1232374	0.05788795	0.14178762
0.12189127	0.56667199	0.12131426
0.62547849	0.31605061	0.12402093
0.636003	0.83201662	0.12173365
0.62481979	0.0772802	0.64865423
0.6281821	0.57643241	0.61204703
0.08572417	0.32768783	0.61081428
0.1420984	0.82427713	0.59963205
0.12642372	0.06614303	0.13617298
0.13504156	0.56908295	0.12002073
0.61314405	0.32225623	0.12132665
0.64502117	0.82997204	0.13154461
0.62329831	0.07744244	0.6441687
0.63315939	0.57966276	0.61093323
0.0982921	0.32048858	0.59989623
0.1425499	0.81288428	0.60502714
0.12819386	0.07252925	0.12984821
0.14172431	0.57052766	0.11013849
0.60742678	0.33564955	0.11792324
0.65406373	0.83090086	0.1377276
0.6222489	0.07971409	0.63770517
0.63265933	0.57968146	0.61884455
0.11334161	0.32149619	0.60335692
0.1440168	0.81623133	0.6199136
0.12444419	0.07536118	0.13417464
0.13402269	0.56922971	0.10536349
0.6150994	0.34182571	0.11722821
0.64929476	0.83034145	0.12938273
0.62047737	0.08090094	0.62855914
0.6217175	0.57510891	0.62348672
0.1156326	0.33133941	0.60550197
0.14216066	0.82817763	0.62940814
0.12024216	0.07745453	0.1390429
0.12543153	0.57208943	0.1125048
0.61530104	0.33372313	0.12392983
0.63553213	0.82432092	0.11705608
0.61673525	0.07853039	0.6211654
0.60928559	0.57658512	0.61576658
0.10589943	0.33653472	0.60756573
0.14041725	0.83265654	0.62567773
0.12013135	0.07933092	0.13410961
0.12741644	0.58139839	0.1230781
0.60747343	0.32315624	0.12529777
0.63172099	0.81977802	0.11857873
0.61457157	0.07364896	0.61798584
0.60786016	0.58313826	0.60335711
0.11054941	0.33142308	0.61939344
0.13408494	0.829496	0.6191581
0.12344534	0.0844925	0.12461702
0.13334548	0.58279385	0.12836979
0.60427934	0.32017137	0.11813011
0.63338917	0.82146416	0.12967391
0.61861766	0.07188309	0.61773823
0.62165194	0.58125416	0.59961295
0.12481169	0.32586068	0.63293347
0.13019008	0.82819999	0.61871015
0.12446288	0.08696543	0.12038366
0.13334684	0.57749161	0.11809901
0.61205914	0.32692337	0.10658988
0.62533097	0.82513015	0.12970961
0.62937202	0.0753213	0.62103496
0.64029166	0.57341511	0.60284694
0.12249981	0.32879052	0.63022529
0.13653506	0.83100922	0.62270382
0.11810103	0.08322827	0.12076746
0.12975452	0.57767458	0.10200876
0.62355901	0.33059345	0.10244688
0.61608614	0.82386736	0.11686134
0.63287239	0.08110358	0.62717784
0.64403988	0.56860329	0.60124783
0.1108706	0.33747692	0.62144692
0.14285754	0.83242984	0.62374931
0.11873112	0.08086108	0.12187415
0.12591731	0.58326039	0.09542274
0.62758995	0.32589674	0.10819275
0.61930757	0.81969445	0.09989875
0.62536366	0.0830847	0.63146438
0.63743226	0.57129653	0.59439807
0.11105183	0.33775917	0.6165865
0.13939644	0.83186437	0.62394843
0.12821519	0.08586841	0.12046854
0.12353459	0.58515081	0.10360407
0.62821743	0.31882442	0.10889168
0.62749595	0.81976352	0.08801041
0.62221463	0.07807064	0.6293269
0.63770609	0.57456401	0.59255728
0.1287523	0.32992485	0.6166183
0.13549089	0.83170862	0.63048699
0.1297156	0.08688606	0.1191467
0.12452492	0.58149543	0.11698293
0.62907346	0.31780801	0.10547706
0.63460898	0.82348195	0.09302258
0.62817833	0.07327489	0.62002335
0.6459762	0.57350815	0.59813317
0.14430145	0.326256	0.61728336
0.14261449	0.83310304	0.64269617
0.12370531	0.0817968	0.11942541
0.12451437	0.5788982	0.11395506
0.62908937	0.3222334	0.1074072
0.63536665	0.82135485	0.11676077
0.63376923	0.07500135	0.61120035
0.64803495	0.57303155	0.60293822
0.13997842	0.32898282	0.61514941
0.15317192	0.83548796	0.64484614
0.11780999	0.07582008	0.12291332
0.12213026	0.58163842	0.10979622
0.62673418	0.32376244	0.11491169
0.62912389	0.81374447	0.13023733
0.63252672	0.0770535	0.61053504
0.64139042	0.57707782	0.60653259
0.13381263	0.33099305	0.61228859
0.15050696	0.83450183	0.63611167
0.11886316	0.07486027	0.12876322
0.12239415	0.58471112	0.12260834
0.62711689	0.31731402	0.11993877
0.62109364	0.80810908	0.12183136
0.6298818	0.07192138	0.61361807
0.63848916	0.57893956	0.61139363
0.13827814	0.32674169	0.61339598
0.13616278	0.82934346	0.62739684
0.12481146	0.07731024	0.13070071
0.12735087	0.58397294	0.13103406
0.6368503	0.31159305	0.11889196
0.61952408	0.81172398	0.11304032
0.63500425	0.06446875	0.61238035
0.6431633	0.57548674	0.61238497
0.14772893	0.32171175	0.62054276
0.13041327	0.82413849	0.62399267
0.13032849	0.07682873	0.12474848
0.13288687	0.5777001	0.12636702
0.64899747	0.31457234	0.11210369
0.6252312	0.8191766	0.1191941
0.64341712	0.06412113	0.61087102
0.64385653	0.5707146	0.60887972
0.14920847	0.32216279	0.62013857
0.14151754	0.82464051	0.62138425
0.13068867	0.07338934	0.11901172
0.13698058	0.56955065	0.12194828
0.64540792	0.31735366	0.10637006
0.62649744	0.82476147	0.13308123
0.64396104	0.06893653	0.61247899
0.63781093	0.56873981	0.60765422
0.14071611	0.32622616	0.61224674
0.1493123	0.82610467	0.62054505
0.12838143	0.07051488	0.11967171
0.1363632	0.56785248	0.12223722
0.63255592	0.31623178	0.10811698
0.62427933	0.82661861	0.13188939
0.6430195	0.06843992	0.61378866
0.62907741	0.5686106	0.61331919
0.13362246	0.327783	0.61418474
0.13954755	0.82263565	0.62657263
0.12614028	0.06979711	0.12299263
0.12697394	0.57182227	0.12551868
0.63210989	0.31697528	0.11405173
0.62834389	0.82736278	0.1147308
0.64752253	0.06260845	0.61212579
0.62185105	0.56788538	0.62034428
0.14137972	0.3241718	0.6272101
0.12759888	0.81827146	0.6307991
0.12781881	0.06976718	0.12680487
0.11691301	0.57168912	0.13260011
0.63499861	0.32155775	0.1184529
0.63195816	0.8288323	0.10083242
0.65159949	0.06001791	0.61140611
0.61968801	0.56750835	0.62378798
0.14983773	0.31805481	0.63822507
0.12730258	0.81962946	0.62933393
0.1380164	0.06796417	0.13292081
0.11613661	0.56634587	0.13382067
0.62765383	0.32480036	0.11744117
0.62955946	0.82929417	0.10287425
0.65062737	0.06377957	0.61331405
0.62674127	0.56853507	0.62585685
0.14790391	0.31802441	0.64050277
0.13174682	0.82166451	0.62994697
0.14476128	0.06559574	0.12987329
0.12073893	0.56353002	0.12939771
0.61657235	0.32254282	0.1116508
0.62613039	0.82463726	0.10973551
0.64383511	0.06751349	0.61174303
0.63660993	0.56889504	0.6307732
0.13967277	0.32197852	0.63245563
0.12656765	0.81931148	0.6354745
0.14186818	0.06522961	0.12109935
0.12270498	0.5651502	0.13484701
0.61982159	0.31912146	0.1073565
0.62274733	0.81857561	0.11132571
0.63619157	0.0659489	0.60868048
0.6368501	0.56826197	0.63644382
0.14118921	0.32186148	0.63278507
0.11024365	0.81661104	0.63801215
0.14140962	0.06600875	0.11890584
0.12086697	0.56709665	0.14913376
0.63470332	0.31910547	0.11224552
0.61934304	0.81639975	0.10683629
0.63211258	0.06340854	0.61225581
0.63110196	0.56876873	0.63609915
0.15577377	0.31643014	0.64264194
0.10480047	0.81867088	0.63397066
0.14787452	0.06510804	0.12354788
0.12077058	0.56540664	0.15743092
0.64332023	0.32092481	0.12185708
0.61433067	0.81737371	0.10371984
0.63076102	0.06732118	0.61709697
0.63598997	0.5697748	0.62630053
0.16275704	0.31263869	0.65144254
0.11890985	0.82146271	0.62900403
0.14921686	0.06389555	0.13064983
0.12762356	0.56192117	0.15473801
0.63619652	0.32140649	0.122612
0.61088983	0.81491024	0.11269753
0.62581273	0.07394859	0.61421594
0.64639749	0.56655811	0.61394677
0.15422069	0.31140358	0.6497614
0.13082778	0.81829705	0.6320663
0.141495	0.06419089	0.1300498
0.13410106	0.56136363	0.14601666
0.62239567	0.31867066	0.1165584
0.61467424	0.81021577	0.12237933
0.61704667	0.07701815	0.60588916
0.63979967	0.56194392	0.61282597
0.14962325	0.31326922	0.63792552
0.12831266	0.81417787	0.63938987
0.12968494	0.06459775	0.12263813
0.12555922	0.56378234	0.14016904
0.6208124	0.31414496	0.11299669
0.6224191	0.80586593	0.12259323
0.61526499	0.07527064	0.59902714
0.62438933	0.56161254	0.61863541
0.15123282	0.31339122	0.63256344
0.12260899	0.81506414	0.6405691
0.1264704	0.0645983	0.12107027
0.11044473	0.56513339	0.14259405
0.63507918	0.31040625	0.11900944
0.62174324	0.80207758	0.1192819
0.62651637	0.07498813	0.59942874
0.62202227	0.56336939	0.61938187
0.15217133	0.30992348	0.64132653
0.12273591	0.81320715	0.6358443
0.13380727	0.06163478	0.12545357
0.1051372	0.56181228	0.14893175
0.64383405	0.3101098	0.12940984
0.61240162	0.79750728	0.11607182
0.640117	0.07999977	0.60416749
0.63750393	0.56488545	0.61658391
0.14978339	0.30709097	0.64416205
0.12234607	0.8071959	0.63908576
0.1404853	0.05906662	0.12789129
0.11720558	0.56024277	0.15296957
0.630834	0.31172303	0.12891536
0.61045984	0.79295566	0.11434522
0.64146739	0.08250612	0.6053947
0.64847997	0.56398529	0.61772555
0.1402793	0.31261184	0.63065396
0.1194598	0.80459686	0.64570721
0.13791831	0.06081196	0.12500836
0.12911318	0.56102526	0.15464427
0.61619865	0.30596412	0.11646454
0.61183046	0.79200599	0.11879319
0.62991405	0.07612765	0.60472561
0.64557577	0.56118125	0.62002947
0.13170166	0.32363727	0.62152081
0.1016796	0.80659395	0.64518901
0.13056651	0.06069686	0.12445313
0.13237117	0.56163991	0.15324041
0.62213864	0.29725705	0.11873471
0.60921637	0.7994663	0.1268866
0.62141281	0.06621435	0.61194616
0.63677114	0.56065611	0.61862859
0.12787282	0.3244861	0.62687375
0.08547396	0.80852873	0.64231197
0.13310114	0.05921574	0.12619902
0.1308555	0.56239987	0.15225963
0.64258678	0.29594435	0.13020176
0.60272236	0.80867344	0.13396862
0.62070881	0.05873557	0.62261769
0.6328449	0.56284814	0.61971517
0.12186607	0.3191236	0.63691687
0.08634189	0.80744277	0.64517824
0.14319827	0.06128669	0.12677965
0.13522513	0.5626692	0.15209617
0.65165884	0.29971258	0.1338246
0.60445018	0.81225198	0.13418566
0.62477828	0.05531963	0.62613108
0.63173466	0.55920818	0.62529075
0.11085125	0.31978321	0.63869677
0.10040431	0.80791432	0.64289389
0.15166269	0.06501281	0.1216933
0.14261807	0.56153138	0.14475778
0.64246273	0.30022251	0.12601801
0.61201945	0.80667502	0.12879003
0.62935871	0.05157208	0.62257478
0.62403308	0.54869703	0.63426491
0.10071238	0.32387751	0.63589584
0.11967656	0.81271011	0.62998959
0.14103109	0.06518578	0.11584212
0.14763426	0.56015397	0.13946426
0.63363835	0.29751196	0.1185158
0.61749703	0.79924966	0.12701345
0.63248136	0.04552359	0.6162709
0.60423131	0.54352107	0.64077504
0.09808035	0.31719032	0.63803314
0.12575131	0.81930133	0.62231288
0.1166691	0.06270366	0.11351728
0.14511617	0.5599575	0.14115391
0.63914293	0.29578134	0.12534931
0.61848274	0.79761998	0.1280435
0.6342751	0.04175116	0.61186256
0.58813677	0.54662935	0.64177945
0.10388831	0.30849219	0.6436991
0.11868547	0.81953418	0.63209379
0.09494352	0.0590942	0.12012636
0.13748332	0.56230449	0.14199269
0.64912243	0.2964218	0.13913404
0.61536448	0.80143682	0.1268218
0.64011682	0.04251321	0.61320961
0.58997703	0.55154149	0.64494738
0.11472631	0.31158713	0.64352259
0.10831112	0.81381454	0.64511799
0.09299579	0.05975892	0.128482
0.13429693	0.56372531	0.14326447
0.64631028	0.29870602	0.14277148
0.61342147	0.80453406	0.1284309
0.64786278	0.04560655	0.61797478
0.60521244	0.55193621	0.65326792
0.12740031	0.31921885	0.63357117
0.09860634	0.81392814	0.64019916
0.10914484	0.06475099	0.12675341
0.14164794	0.56317319	0.14013849
0.6282291	0.29967332	0.13754489
0.61903741	0.79979297	0.13523891
0.64840605	0.04579594	0.62042466
0.62123497	0.55035465	0.64949843
0.13141397	0.32298501	0.62534831
0.09391355	0.82113306	0.62866152
0.12588298	0.06559728	0.12133433
0.15233889	0.56162002	0.1288165
0.61719305	0.29843638	0.13367845
0.63309404	0.79579758	0.14313083
0.64182586	0.04494443	0.62102939
0.62623033	0.54997709	0.64198257
0.12508651	0.32186872	0.63069885
0.09723688	0.82468845	0.62734597
0.12615427	0.06247529	0.12964645
0.15065061	0.56102955	0.12955531
0.6253649	0.29712352	0.13646755
0.64460669	0.80175239	0.14699592
0.64278672	0.04726621	0.62787121
0.62062753	0.55257418	0.64999689
0.1282662	0.31830078	0.63910964
0.10844386	0.82198323	0.63156919
0.10880061	0.06216063	0.13738733
0.13594007	0.56298967	0.14042052
0.63922936	0.29618787	0.14432637
0.64453871	0.80568167	0.14633323
0.64586027	0.05065473	0.63558113
0.61579851	0.55542573	0.65496505
0.13901334	0.31595692	0.63221981
0.11925906	0.8198095	0.62873473
0.11389186	0.06338847	0.13302135
0.12652908	0.56425203	0.13915398
0.64174264	0.29769629	0.14438279
0.63600436	0.8016065	0.1434201
0.63681881	0.05243004	0.63359644
0.62470717	0.55658118	0.64438319
0.13762571	0.31556288	0.62228639
0.11983028	0.82028989	0.62079188
0.13903461	0.06310268	0.13153142
0.1282087	0.56107147	0.12774648
0.6332643	0.30340028	0.13377777
0.62951139	0.79461423	0.14076927
0.62477591	0.05482121	0.63463169
0.6350463	0.55794582	0.62988916
0.12618751	0.31520659	0.62853767
0.11657617	0.81952733	0.61940371
0.14783462	0.0608795	0.13595628
0.12982066	0.55977024	0.11799889
0.62846872	0.30762699	0.13489515
0.62996487	0.79103101	0.14011276
0.62121197	0.05880405	0.64042997
0.63226347	0.56259681	0.62763037
0.12482284	0.314085	0.63646348
0.12128966	0.81438641	0.62440153
0.13454267	0.05907042	0.13864291
0.12515836	0.56140412	0.11656431
0.63464658	0.30654992	0.14407449
0.63406894	0.79630587	0.14042233
0.62301472	0.06271853	0.64191732
0.62642717	0.56478905	0.63713993
0.1390616	0.31202296	0.63191691
0.12983135	0.80723959	0.62342298
0.11973498	0.05954023	0.13551613
0.12057338	0.5630627	0.11780921
0.6388076	0.30400837	0.14992071
0.63750903	0.80704594	0.135509
0.62600156	0.06502762	0.6398411
0.63210867	0.56182915	0.64479487
0.15281672	0.31057019	0.61948207
0.12852589	0.80708543	0.61742182
0.1203131	0.06094173	0.1318223
0.12436316	0.56213849	0.11320259
0.63315335	0.30357076	0.14269655
0.6360341	0.81058996	0.12967846
0.62844943	0.06739473	0.64450256
0.64034307	0.55925667	0.64401422
0.15422976	0.3114044	0.61502034
0.11680653	0.81456114	0.61347613
0.13119346	0.0584994	0.13168484
0.1287466	0.55856528	0.10384813
0.62498805	0.30592682	0.12812569
0.63021845	0.80493069	0.12640864
0.62841272	0.07004979	0.6517238
0.63368845	0.56042516	0.64257748
0.14881453	0.31367744	0.62260162
0.11196131	0.81987963	0.61342671
0.14007154	0.05468654	0.13210414
0.12687915	0.55949766	0.09894432
0.62231653	0.30902791	0.12076735
0.62278248	0.80376157	0.1271613
0.62382297	0.07170173	0.65195898
0.61924465	0.56431253	0.6444206
0.14395829	0.31609355	0.63082582
0.12661709	0.81729078	0.61407109
0.13617295	0.05341914	0.13040357
0.12069721	0.56252374	0.10725419
0.6274947	0.31116672	0.1226957
0.61923251	0.81146531	0.13213702
0.61780498	0.07348814	0.64676572
0.61659182	0.56841042	0.64439225
0.14162747	0.3181205	0.62772908
0.1492305	0.81143185	0.61515902
0.12645559	0.05358274	0.1256607
0.11426537	0.55857873	0.11859268
0.63438926	0.3106778	0.12406876
0.61900214	0.81691112	0.13802744
0.61390214	0.07411136	0.64565661
0.62563662	0.56960389	0.63724884
0.13801376	0.31915342	0.62175544
0.15303662	0.8117012	0.61780773
0.12360356	0.05065585	0.12049323
0.11370144	0.55061564	0.11803493
0.63461097	0.30896251	0.11953806
0.61641841	0.81406962	0.13496737
0.61069263	0.07555727	0.64899748
0.63405376	0.56962003	0.62571385
0.12828143	0.32192004	0.62465761
0.1400907	0.81949999	0.61730368
0.13291189	0.04918469	0.12001906
0.11857944	0.54703424	0.11283716
0.6292339	0.30987926	0.11663224
0.60952089	0.80926103	0.12286942
0.60702473	0.07772011	0.64490864
0.63584972	0.57066938	0.61882287
0.11514044	0.32436266	0.63616202
0.13635949	0.82521652	0.60717994
0.13376431	0.05516506	0.12192574
0.12396361	0.5516412	0.11640766
0.6255532	0.31314958	0.12243829
0.60559173	0.81048536	0.11271934
0.60860361	0.07745816	0.62947426
0.63754564	0.57274379	0.62622305
0.10644881	0.32442623	0.63993369
0.14954835	0.82322626	0.6045864
0.12181762	0.06683463	0.11607444
0.12172362	0.56083264	0.12335534
0.62380548	0.31384479	0.13432132
0.60964712	0.81555453	0.112929
0.61901366	0.07436677	0.61801896
0.64239999	0.57533739	0.6321643
0.10616322	0.3236677	0.62844958
0.15744349	0.82053991	0.61721806
0.11311046	0.0715485	0.10406171
0.11300287	0.56824771	0.12144598
0.61806726	0.31017004	0.13992092
0.61675967	0.81908445	0.11834109
0.62571349	0.0728458	0.61903554
0.63961715	0.57480038	0.62705816
0.11219145	0.32333284	0.61102453
0.14674062	0.82732246	0.62750565
0.11621561	0.06839543	0.10827917
0.11350602	0.5703752	0.11432165
0.61068225	0.30662017	0.1300158
0.62628933	0.8184696	0.12040997
0.61878468	0.07345605	0.62703607
0.63136191	0.5726753	0.61386892
0.1168457	0.32431208	0.61267199
0.13512258	0.83087149	0.62130254
0.12331424	0.06435898	0.12546328
0.13054624	0.57209808	0.11360824
0.60566495	0.30924618	0.12110294
0.63053165	0.81539231	0.11516574
0.61428624	0.0748152	0.63188699
0.62704792	0.57269972	0.60665406
0.11252345	0.32463173	0.61936244
0.13935404	0.82578301	0.60809553
0.12605446	0.06389834	0.13406597
0.14589234	0.57636319	0.11937466
0.60514403	0.31483467	0.12482848
0.62523917	0.812821	0.10837587
0.61948919	0.07358568	0.62631446
0.62993283	0.57310265	0.60323665
0.10711583	0.32612592	0.61266853
0.15182586	0.82630229	0.60684612
0.12373344	0.06661048	0.12811497
0.1413302	0.57614317	0.11979069
0.60856852	0.31880362	0.12481737
0.62190315	0.81601414	0.1116088
0.61779382	0.07135622	0.61550028
0.64143108	0.5711543	0.59380466
0.10842772	0.32733196	0.59911195
0.15517535	0.82603754	0.62367383
0.11903376	0.06966838	0.12036485
0.12713062	0.56957268	0.11067133
0.61483956	0.32105036	0.11713829
0.62620029	0.82420462	0.11876713
0.60456587	0.07011789	0.61456117
0.64979023	0.56968344	0.57922615
0.10563898	0.32694707	0.59682835
0.13744181	0.82227876	0.62860626
0.11670618	0.07229468	0.11975741
0.13391084	0.56502502	0.10184382
0.61796908	0.32613825	0.11339782
0.63497994	0.82842022	0.11528135
0.59313125	0.06973385	0.62353777
0.63976715	0.56935862	0.58070531
0.10010316	0.3227772	0.6042702
0.12016549	0.82615749	0.61569108
0.11645885	0.07660862	0.12234604
0.14703352	0.57074473	0.10211724
0.61750783	0.3298789	0.1217489
0.63945554	0.82549659	0.10367551
0.59759382	0.06779336	0.63013466
0.62597822	0.57018382	0.60136541
0.09666493	0.32040344	0.60767028
0.12943428	0.83371816	0.61536328
0.11555645	0.08315693	0.12014225
0.14829311	0.57576662	0.10757864
0.61195798	0.32881669	0.13416145
0.64527939	0.82520605	0.0958109
0.61240112	0.06655762	0.62335201
0.62478256	0.57165494	0.61975141
0.0964913	0.32180072	0.5992246
0.15066751	0.83906069	0.62486503
0.11400791	0.08741673	0.11586897
0.13370686	0.57199415	0.11443019
0.61458791	0.3272191	0.13304998
0.6529776	0.82928288	0.10103019
0.61961007	0.07089238	0.61301945
0.62571015	0.57196624	0.61851049
0.10223452	0.32253738	0.59015648
0.1505157	0.83489683	0.63025055
0.11299219	0.08668345	0.11538305
0.12203857	0.56967263	0.12019624
0.62535399	0.32615993	0.11153153
0.64971189	0.83133427	0.11682306
0.61044852	0.07300375	0.62236794
0.61923235	0.57265658	0.61124644
0.10806029	0.31959454	0.58858932
0.12942741	0.82377507	0.62624701
0.1169032	0.08004692	0.12266142
0.12825215	0.57406638	0.12782653
0.62613038	0.32258243	0.09120582
0.64924805	0.82738669	0.12213977
0.60319319	0.06705149	0.64051777
0.6180305	0.57370928	0.60934632
0.10877883	0.32323005	0.59971924
0.12159853	0.82120158	0.6198124
0.1214866	0.07475458	0.12797211
0.14390765	0.57948991	0.12896468
0.62187799	0.32029792	0.08781654
0.65410383	0.8195534	0.11018677
0.60913062	0.06270472	0.63589263
0.62121524	0.5753679	0.61251482
0.10584602	0.33179438	0.61472166
0.1360865	0.82766691	0.61799115
0.12039573	0.07280471	0.12486755
0.13527725	0.57644997	0.12335131
0.62633037	0.32245403	0.09581591
0.65499337	0.81637004	0.09704314
0.62522666	0.06710643	0.62089853
0.61495274	0.57964378	0.61374709
0.10873942	0.3323942	0.61526098
0.14812554	0.82636304	0.62449529
0.11528093	0.07344161	0.12637481
0.11160974	0.56871907	0.1170222
0.62590561	0.32522551	0.09666054
0.64583159	0.82085253	0.09953444
0.62427918	0.07553936	0.61653477
0.60497602	0.58247002	0.60820583
0.1227336	0.32177607	0.61052641
0.13458051	0.81621575	0.63401367
0.11047102	0.07351462	0.12934961
0.10425515	0.56824266	0.11477973
0.61758757	0.32361189	0.08720593
0.63635404	0.82275011	0.11522142
0.6105651	0.07896467	0.61966043
0.60295789	0.57832255	0.60482707
0.12688201	0.31371921	0.61959884
0.11267732	0.81271337	0.62756384
0.10883603	0.06960783	0.12998929
0.11724195	0.57427696	0.11313039
0.61078866	0.31888539	0.08061267
0.63591592	0.81786477	0.1254796
0.61106892	0.07388187	0.61242612
0.60824334	0.57057394	0.6091653
0.11905315	0.31639875	0.63528081
0.10264237	0.81909755	0.62652748
0.11088327	0.0648388	0.12991571
0.12516484	0.57876287	0.11754545
0.60683533	0.31674958	0.09285714
0.63871647	0.81399129	0.11604088
0.62610035	0.06693521	0.60379507
0.61013961	0.5684429	0.61011833
0.11669431	0.32368111	0.63520873
0.11263168	0.82536216	0.6451354
0.11460298	0.06521147	0.12912638
0.11968593	0.57693411	0.12585046
0.6061635	0.31571014	0.10940427
0.63279147	0.81461668	0.09956113
0.6355933	0.06821383	0.60815075
0.60536173	0.56964315	0.60455219
0.11580936	0.32669226	0.62402051
0.11781992	0.82082252	0.64803183
0.11720615	0.07005554	0.12995416
0.10863198	0.57143799	0.12869784
0.60696439	0.31322743	0.11090317
0.62172508	0.8165089	0.10777938
0.63189914	0.07573681	0.61817248
0.60151595	0.56728336	0.59822063
0.11026689	0.31979492	0.62165047
0.10897959	0.81245633	0.6332446
0.11890519	0.0699986	0.13152151
0.10833644	0.56845021	0.13008249
0.60717816	0.3111297	0.10781264
0.61311896	0.81501518	0.12435835
0.62570222	0.07459418	0.61829768
0.60433352	0.5630277	0.59578894
0.11733714	0.31446152	0.62807983
0.09918116	0.81428832	0.62276685
0.11895303	0.06507598	0.13032638
0.11669597	0.56752419	0.12303904
0.606667	0.31181286	0.11530272
0.61021659	0.80930886	0.11838614
0.62885799	0.06542908	0.60498977
0.60646288	0.56076667	0.59846878
0.13485772	0.31941726	0.63222448
0.10549923	0.8207088	0.62582468
0.11742084	0.05974367	0.1255199
0.11949214	0.56658019	0.1083864
0.60538157	0.31120465	0.12093303
0.61337541	0.80559056	0.10776262
0.63528484	0.06558764	0.59398032
0.60235288	0.56272283	0.60160373
0.13806945	0.3239091	0.63244883
0.11770239	0.82016798	0.6344053
0.11381261	0.06181012	0.12269636
0.10999472	0.56487317	0.10786886
0.60376937	0.30811139	0.114331
0.6151584	0.80851928	0.10903027
0.63447557	0.07087813	0.60374812
0.59692916	0.5658593	0.59618457
0.13436671	0.31797724	0.63046756
0.12057953	0.81515994	0.63289035
0.10918584	0.06439338	0.12245648
0.09553304	0.56194016	0.11660609
0.60326696	0.30565043	0.11053851
0.60817029	0.81256311	0.11662509
0.62004103	0.07067926	0.61572997
0.59797439	0.566472	0.59274752
0.12865663	0.30948009	0.63197998
0.11076014	0.81526839	0.62178179
0.11079393	0.06255986	0.11918809
0.09669405	0.5603718	0.12696379
0.60331566	0.30561121	0.11785372
0.59904955	0.81233058	0.12091834
0.61062073	0.06374242	0.61667342
0.60328002	0.56391999	0.60361228
0.12285619	0.3099045	0.63306827
0.10541765	0.82124192	0.61791734
0.12154405	0.05929176	0.11387136
0.10808717	0.56207571	0.13364874
0.60391935	0.30681207	0.12849422
0.60320204	0.80813844	0.12011708
0.62319721	0.05983359	0.60680641
0.60965747	0.5622551	0.61864715
0.11954347	0.31458344	0.62791709
0.11897224	0.82460593	0.62282524
0.13731378	0.06112844	0.1212046
0.11064466	0.56400833	0.13453424
0.60689199	0.30892136	0.13217849
0.61714231	0.8052506	0.11900339
0.64083427	0.06223715	0.60398362
0.61252299	0.56642936	0.62387318
0.1183325	0.31406039	0.62188066
0.12868182	0.81750919	0.62637976
0.14254965	0.06573631	0.13433138
0.10386219	0.56160951	0.13203021
0.61306906	0.31159803	0.12699612
0.61606746	0.80585463	0.12443565
0.6428708	0.06627438	0.61313284
0.61501086	0.56856913	0.62270233
0.11639874	0.3115919	0.62198551
0.11944694	0.81004404	0.62180677
0.13635202	0.06739704	0.13321723
0.10634963	0.55889583	0.12839348
0.61961709	0.30873711	0.12156168
0.59957757	0.8102882	0.13165299
0.6232071	0.06493451	0.62182211
0.62469553	0.56316898	0.62240207
0.11669449	0.31313581	0.62086963
0.112812	0.81504782	0.61520059
0.12559732	0.06403935	0.12478007
0.11738261	0.56175072	0.12527363
0.62184445	0.30391478	0.12115466
0.6014351	0.81255217	0.13157856
0.6123137	0.06001921	0.61659877
0.63721269	0.56027381	0.6285153
0.12033519	0.31666155	0.61667305
0.12031312	0.82734322	0.61590877
0.11581697	0.06239591	0.12610522
0.1229285	0.56575297	0.12000093
0.62190697	0.30863617	0.12550389
0.61937884	0.80946832	0.12479009
0.62507695	0.0589964	0.60918917
0.64376383	0.56612939	0.63360935
0.12685154	0.31796819	0.61647776
0.13539916	0.82771572	0.62225678
0.1156174	0.06671621	0.13281179
0.11688929	0.56556275	0.11524213
0.62558767	0.31828257	0.12388589
0.62402046	0.80823441	0.11636599
0.63218479	0.06523033	0.61333093
0.63789412	0.56580701	0.6342762
0.13055275	0.3199176	0.62361318
0.13231693	0.82013378	0.62858724
0.12367191	0.07124883	0.134959
0.11816402	0.56599485	0.11662854
0.63112333	0.31871744	0.12241162
0.61606403	0.81480987	0.10862652
0.62750669	0.06852287	0.63110268
0.63296413	0.55869677	0.6332303
0.12496665	0.32270063	0.63184063
0.11226122	0.81622194	0.63069025
0.12430681	0.07171511	0.12795918
0.13131583	0.56746279	0.12562074
0.63328663	0.30895359	0.12529267
0.61526559	0.81949332	0.11312158
0.62346834	0.06414049	0.63878539
0.63932426	0.55616364	0.63489486
0.1170395	0.32420079	0.63296319
0.09696699	0.82210299	0.63178257
0.11715184	0.07115453	0.1187549
0.14154415	0.56751213	0.13021645
0.63457215	0.30116489	0.1260991
0.62567024	0.81874194	0.12919572
0.62749877	0.054998	0.62869091
0.64835721	0.56167466	0.63598317
0.12035347	0.32483815	0.62831222
0.10990942	0.82219731	0.6319206
0.11993716	0.07038928	0.11892997
0.13839935	0.56782821	0.1252162
0.6393876	0.30308359	0.11770579
0.63221262	0.81491355	0.13710807
0.6367085	0.05170436	0.62289199
0.64544979	0.56623021	0.63794458
0.12986957	0.32409405	0.62679594
0.1301964	0.81761682	0.62982832
0.13130746	0.06662134	0.12784126
0.13129268	0.57049045	0.12031126
0.64432765	0.31159771	0.105623
0.62834762	0.81287702	0.1316773
0.64077779	0.05704702	0.63053504
0.63402641	0.5616714	0.63926538
0.13618598	0.32160213	0.62802587
0.12887597	0.816145	0.62547391
0.13203958	0.06233191	0.13342879
0.1314399	0.57302747	0.12381329
0.64646673	0.31480846	0.10685086
0.62208028	0.81315571	0.12681073
0.62946184	0.06072732	0.63357009
0.62483703	0.55184367	0.64343745
0.13740328	0.31935031	0.6252656
0.11307554	0.81781434	0.62049531
0.12134182	0.06169839	0.13437464
0.14100095	0.57210707	0.12763803
0.65121037	0.30819049	0.12176884
0.62446248	0.81270569	0.13767589
0.60938057	0.05604922	0.62893738
0.62356829	0.54604554	0.64880866
0.13581228	0.31959964	0.61950783
0.11625367	0.8201229	0.61793671
0.11650545	0.06305594	0.13287445
0.14862025	0.5699182	0.12722215
0.65538219	0.30385175	0.13061035
0.63105119	0.8073882	0.14547133
0.59937131	0.05024747	0.62507793
0.62827341	0.55214113	0.64661641
0.1363428	0.32187125	0.61964293
0.13355031	0.82220993	0.61891558
0.12084465	0.06201323	0.13208866
0.14411505	0.56858494	0.12992811
0.6510635	0.30383425	0.1309768
0.63207089	0.8031955	0.12977692
0.61384481	0.05250044	0.62587515
0.62504666	0.56232454	0.64252245
0.13951171	0.32450282	0.63172016
0.12746367	0.82036234	0.62238202
0.12384723	0.0639206	0.1323834
0.14268103	0.56746216	0.13591002
0.63897737	0.30383643	0.13402603
0.63181636	0.80592112	0.11325661
0.63512343	0.05747706	0.63053896
0.61611846	0.56146345	0.64281011
0.14287317	0.32219608	0.64253281
0.11719377	0.81261852	0.62891113
0.12270531	0.06969429	0.13142751
0.14900505	0.56491403	0.14156866
0.63689497	0.30082286	0.13791649
0.63538355	0.80945071	0.12448429
0.6345413	0.05615511	0.63854515
0.61989849	0.55171346	0.64091674
0.14875722	0.31485769	0.63940034
0.1155811	0.80560456	0.63097494
0.12413204	0.0704926	0.12352478
0.14749271	0.56060786	0.14541052
0.64909669	0.29676348	0.13742672
0.63474713	0.80799149	0.14434059
0.62333076	0.05244387	0.63988778
0.63774484	0.54735854	0.63434022
0.1548187	0.3105017	0.63408808
0.11676061	0.80376349	0.62453567
0.13144571	0.06703057	0.11349585
0.14031988	0.55575269	0.14533666
0.65306603	0.29691744	0.13479187
0.62732533	0.801696	0.15016282
0.6237678	0.04976278	0.62790154
0.64491003	0.55369034	0.63417445
0.15293503	0.30883272	0.63249952
0.11341265	0.8074774	0.61465257
0.13612609	0.0651012	0.11212269
0.13932017	0.55346181	0.14079346
0.64676112	0.30453278	0.1363488
0.62240933	0.79535658	0.14259274
0.62408516	0.05047132	0.61181631
0.63747462	0.56031169	0.64189889
0.1492793	0.30523263	0.63155654
0.10682782	0.81062405	0.61207287
0.13523489	0.06485326	0.11708411
0.14667738	0.55840236	0.13553593
0.64157591	0.30964967	0.14463485
0.6224193	0.79381331	0.13495309
0.62201542	0.0571499	0.60442013
0.63169843	0.55459466	0.65105042
0.1411317	0.30256923	0.62543999
0.10670643	0.8108068	0.62166237
0.13603012	0.06278338	0.11600872
0.15168278	0.56280281	0.13730481
0.64393584	0.30429967	0.15241329
0.62298676	0.79343949	0.13913472
0.62480405	0.06102546	0.61340323
0.64150481	0.54457345	0.652273
0.13022544	0.30505402	0.61657599
0.11730104	0.80869258	0.6233711
0.13812519	0.06000148	0.11056146
0.15237679	0.557506	0.14236478
0.64974053	0.29480633	0.15219341
0.62264034	0.79021128	0.15453738
0.62892171	0.05890664	0.62662836
0.65084097	0.54280047	0.64965778
0.12860232	0.30950564	0.61249275
0.12881067	0.80746603	0.61625165
0.13832121	0.05953416	0.11211238
0.1476165	0.55088965	0.13390067
0.64855194	0.29168685	0.14762361
0.61631523	0.78706525	0.15714849
0.62856641	0.05309543	0.62640677
0.63967197	0.55153667	0.64878194
0.13799808	0.31151977	0.61746412
0.12468801	0.80933489	0.61532428
0.14214486	0.06011876	0.12185085
0.13728276	0.55268056	0.11946968
0.63839973	0.29474266	0.14419175
0.60964632	0.78664295	0.13927855
0.62727921	0.05079067	0.63843572
0.62472499	0.55591425	0.64893706
0.14117476	0.31038491	0.62688151
0.11441145	0.81029859	0.62764359
0.15008958	0.05935558	0.12529007
0.1297095	0.55782656	0.12226209
0.63029942	0.29507165	0.14413904
0.61131495	0.78972758	0.13036608
0.62887111	0.05292378	0.65370065
0.62716467	0.55123216	0.64382712
0.13546778	0.30937127	0.63045133
0.11815841	0.80770229	0.6371926
0.15311178	0.05763162	0.11788995
0.12448902	0.55856388	0.13395326
0.62920512	0.29236679	0.14241324
0.61587399	0.79272743	0.13639197
0.6326556	0.05426416	0.6536038
0.63310925	0.54709252	0.63503119
0.13280009	0.30895723	0.62449973
0.13057287	0.80624614	0.63166585
0.14740786	0.05339829	0.10963085
0.11890008	0.5530875	0.13264032
0.63063873	0.29233962	0.13733
0.6114896	0.79535255	0.13977538
0.62692261	0.05327303	0.64761699
0.6341282	0.55072903	0.63363088
0.13545325	0.30988995	0.61796429
0.1268718	0.80968085	0.62039845
0.14221349	0.04855081	0.11215193
0.11763214	0.54953447	0.12169825
0.63515564	0.29639692	0.13122108
0.60868718	0.79641056	0.13618759
0.61533381	0.05111855	0.64539596
0.62845814	0.55506851	0.63734868
0.13606312	0.31146761	0.61995327
0.11492111	0.8147222	0.61419309
0.14392197	0.04769263	0.11984596
0.12138725	0.55406508	0.11637141
0.63917139	0.29765871	0.13330256
0.61561362	0.79471377	0.13007832
0.61480083	0.0505294	0.64316933
0.62458033	0.55346721	0.63557542
0.12581803	0.31281821	0.62744102
0.11716046	0.81447749	0.61405478
0.14308831	0.04888504	0.12257969
0.12336218	0.56053352	0.12197851
0.63409135	0.29381951	0.13969186
0.62615268	0.79602478	0.12872273
0.63441252	0.05089303	0.63954832
0.62796501	0.54917743	0.6303395
0.11284864	0.31462545	0.63252055
0.13114102	0.81119497	0.62115139
0.13431502	0.04710367	0.1185268
0.12233966	0.55903377	0.12706991
0.62420045	0.29081024	0.13987163
0.62997674	0.8002385	0.13401542
0.64654054	0.05411085	0.63583399
0.6360123	0.54970559	0.62736606
0.10792586	0.316448	0.63197257
0.1403398	0.81277153	0.63325556
0.12566499	0.04503892	0.11561207
0.12153998	0.55162344	0.1240107
0.62307142	0.29445443	0.13487772
0.62667582	0.80138698	0.12852801
0.64025923	0.05439621	0.63213992
0.63466302	0.5551889	0.6263664
0.11186665	0.3145744	0.6278273
0.13515994	0.81834845	0.63573319
0.12026523	0.04775452	0.12010404
0.11995892	0.54978496	0.12077063
0.629506	0.3003151	0.12734942
0.62365029	0.79638989	0.11465436
0.62718187	0.04971249	0.62572725
0.61909533	0.5590186	0.62414739
0.11696631	0.30979914	0.62569379
0.12623073	0.82152649	0.62467583
0.11411941	0.05202515	0.12932189
0.11668011	0.55543093	0.12365464
0.63151582	0.30380769	0.1211611
0.62538147	0.79341941	0.10912977
0.62676414	0.05099639	0.61842773
0.60859141	0.55861634	0.62013358
0.11812121	0.30901214	0.62675431
0.12796699	0.81982809	0.616209
0.11106073	0.05318614	0.13506063
0.11619054	0.55978136	0.12734722
0.62659363	0.30537363	0.12029512
0.62496938	0.79990672	0.10888516
0.63552692	0.06160263	0.6154552
0.6199058	0.55857691	0.61688256
0.1188268	0.31304718	0.63055387
0.13113529	0.81564576	0.61867825
0.1128897	0.05399703	0.13209727
0.12115924	0.55640302	0.12476259
0.6144868	0.30560982	0.12585431
0.61832952	0.8102003	0.11129925
0.63764985	0.06841016	0.61448099
0.63459441	0.56155445	0.61572352
0.11893952	0.31803919	0.63101006
0.12105148	0.81373605	0.62102799
0.11294286	0.05733911	0.12445301
0.1290389	0.55179832	0.12040151
0.60130572	0.3057552	0.12882376
0.61946829	0.81152916	0.11159698
0.62166253	0.06501339	0.60835977
0.63289479	0.56582943	0.6123615
0.12235292	0.32156348	0.62572847
0.10893644	0.81728478	0.61491819
0.10672258	0.06379675	0.12104688
0.13276216	0.55474838	0.11734663
0.60300248	0.3109058	0.11956666
0.63050069	0.80631919	0.11160604
0.61378824	0.06000842	0.59794059
0.61716504	0.56706486	0.6084565
0.12446757	0.3229992	0.62110919
0.10992351	0.82230036	0.61021287
0.10107748	0.06755561	0.12110255
0.12822529	0.55935572	0.11489595
0.61205395	0.31958205	0.10836374
0.6367221	0.80666961	0.11453137
0.62784946	0.06042595	0.59265489
0.60163202	0.5648732	0.60556465
0.13191372	0.32404987	0.62546093
0.12072949	0.82109771	0.61853977
0.10335719	0.06284793	0.11725934
0.12067526	0.5592147	0.1188081
0.61692508	0.32008233	0.11194938
0.63468445	0.81382651	0.11561139
0.63918204	0.06721817	0.59784109
0.60756732	0.56284095	0.60550389
0.13466392	0.32344965	0.62947696
0.13074084	0.81418991	0.62034109
0.11007908	0.05651108	0.1139526
0.12408408	0.55790115	0.12268879
0.61410847	0.3157718	0.11867535
0.63753426	0.81529359	0.11491761
0.63167999	0.07332827	0.60328312
0.62206366	0.56355009	0.61070457
0.12051248	0.3194783	0.61878625
0.13288089	0.80999498	0.61638375
0.11288548	0.06322382	0.11659579
0.12552499	0.5604729	0.11455477
0.61004564	0.32001463	0.11157494
0.63774634	0.80959945	0.10596814
0.61945843	0.0751131	0.6057466
0.61774926	0.56478584	0.61403723
0.11147844	0.31606871	0.60726018
0.12599678	0.81467275	0.62134889
0.11353121	0.07479981	0.11973323
0.11800583	0.56562901	0.10465883
0.61256964	0.32078291	0.0964781
0.63258717	0.81254644	0.09876462
0.62177808	0.07526088	0.61395798
0.60511836	0.56636152	0.6054997
0.1102985	0.31697656	0.61568606
0.11874265	0.82100234	0.62782075
0.11583439	0.06947115	0.11887536
0.1125042	0.57086095	0.10362203
0.61139861	0.31782696	0.08908385
0.62873698	0.82325686	0.11039336
0.63406928	0.08030447	0.62846183
0.60734957	0.57095933	0.59343165
0.11270536	0.32219888	0.62414024
0.12404318	0.81880838	0.6239963
0.12113956	0.0627121	0.11663916
0.11170707	0.57301925	0.11083171
0.60336155	0.31471488	0.09479061
0.63039565	0.83180525	0.12846425
0.63952881	0.08588617	0.63586832
0.62250832	0.57910987	0.59735352
0.11601008	0.32535233	0.61759045
0.13567704	0.8127087	0.61510279
0.12566096	0.07145253	0.11845994
0.11294516	0.57199399	0.11367152
0.5984792	0.31417635	0.10479555
0.63243096	0.83036569	0.11801476
0.63495389	0.08654239	0.62732551
0.63346803	0.58668371	0.6099699
0.11534875	0.32426461	0.60830635
0.14010223	0.81715719	0.61455293
0.12722778	0.08403328	0.12332358
0.11208436	0.57146414	0.10907486
0.60069374	0.31624595	0.10578354
0.63686084	0.82178818	0.10521902
0.62744683	0.08310063	0.61520994
0.62847255	0.58964659	0.61626142
0.11229422	0.32071272	0.60716881
0.13136172	0.8262205	0.62622336
0.12949759	0.08352637	0.12542664
0.10813226	0.57146085	0.10903059
0.6049419	0.31843951	0.10098553
0.63985148	0.81763032	0.11842558
0.62130385	0.0814273	0.606124
0.61444483	0.58834368	0.61097032
0.11160601	0.32292327	0.60831422
0.12111952	0.826416	0.6364749
0.12542166	0.0722081	0.12255622
0.10491959	0.57154004	0.11241751
0.60497451	0.32191422	0.09966325
0.63650134	0.82179278	0.13214035
0.62380377	0.08399498	0.60475887
0.60647301	0.5851247	0.60225744
0.11402419	0.32135258	0.6100759
0.12932448	0.82041841	0.63317295
0.12110483	0.06979504	0.12270425
0.10514334	0.57467774	0.11096202
0.603357	0.32607824	0.10560937
0.62717058	0.82764272	0.11953807
0.6304521	0.086578	0.60936631
0.61323549	0.58336029	0.60177629
0.11048648	0.31918142	0.6081955
0.14748699	0.81937822	0.61799212
0.12979367	0.07790376	0.12994877
0.10720319	0.57782097	0.10215857
0.60595932	0.33022739	0.10851038
0.62201069	0.82561571	0.09685778
0.62651957	0.08540255	0.61162349
0.62502238	0.58501761	0.60424066
0.09829947	0.32328951	0.6060896
0.14974022	0.82589516	0.60537424
0.13281311	0.08346905	0.13927572
0.10700459	0.57464568	0.0983009
0.61440274	0.33397241	0.10105725
0.62310321	0.82158273	0.09508721
0.61077338	0.08382195	0.61029179
0.62034194	0.58642511	0.60313449
0.08794086	0.32542829	0.60787976
0.13418147	0.83012553	0.60611366
0.12173262	0.07953138	0.14083444
0.10003805	0.57100933	0.10451816
0.61571068	0.33520985	0.085152
0.62057804	0.82778438	0.11429321
0.60468986	0.08324809	0.6042505
0.60740306	0.58572528	0.59911096
0.09638499	0.32274315	0.60993149
0.12156062	0.82825692	0.61409026
0.10969232	0.07098014	0.13187695
0.09382651	0.57293968	0.11599703
0.60881002	0.33454099	0.08144516
0.61219305	0.83772416	0.12621521
0.62010352	0.08131693	0.60614767
0.6109756	0.58306978	0.59663827
0.11566332	0.32088673	0.60976506
0.1275712	0.82678255	0.60843682
0.11204963	0.06585591	0.12685401
0.09782908	0.57569375	0.12209937
0.60650385	0.33230629	0.09740629
0.60859553	0.83962191	0.11521263
0.63114738	0.07777221	0.61346198
0.62636592	0.57804104	0.59708775
0.12089079	0.32370349	0.61824441
0.14297895	0.82837572	0.59695911
0.1208126	0.06639038	0.13777244
0.10848643	0.57362179	0.12188563
0.61893561	0.32799067	0.1059718
0.61466274	0.83085193	0.09361163
0.61069566	0.07441996	0.61607482
0.62129532	0.57293466	0.5992996
0.10935811	0.32656567	0.62001019
0.15096119	0.8299028	0.59721972
0.12162749	0.06782565	0.13964348
0.11660456	0.56822052	0.11870879
0.6304441	0.32561024	0.09758933
0.62426801	0.82316321	0.08608065
0.59631132	0.07163927	0.6109262
0.59945205	0.57191169	0.59903554
0.10080878	0.3260704	0.61095069
0.14284057	0.82813708	0.61035513
0.11174681	0.06593441	0.12498787
0.11910624	0.56464996	0.11475018
0.62368518	0.32664893	0.08916163
0.62711593	0.82754743	0.09643259
0.60454668	0.06699537	0.60549465
0.59751878	0.57249079	0.59264633
0.10707158	0.32585751	0.6145912
0.13163529	0.82412415	0.62462768
0.10343674	0.06388684	0.11517872
0.12073437	0.56624493	0.11145921
0.61018015	0.32460142	0.09013864
0.61971749	0.83546513	0.10908386
0.61354107	0.06249117	0.60912322
0.61697177	0.57002818	0.59419421
0.11698318	0.32776485	0.62752476
0.13571542	0.82228617	0.62849604
0.11089002	0.06504561	0.11856602
0.12428291	0.57099148	0.11006938
0.60848987	0.32072851	0.09786602
0.61756633	0.83359482	0.11069598
0.60561011	0.06153219	0.61770769
0.63312554	0.56851228	0.60352497
0.11986288	0.3305407	0.63329952
0.14354649	0.82442224	0.62325771
0.12352449	0.06893866	0.12537174
0.12685804	0.57268523	0.10744672
0.61513998	0.32041723	0.10471941
0.62499616	0.81996362	0.10154843
0.59482505	0.06503306	0.61835556
0.62978327	0.56938814	0.60367033
0.11574053	0.33018404	0.63024663
0.13627507	0.82467035	0.62582984
0.12871492	0.07153314	0.12548291
0.12705753	0.56970672	0.10447799
0.61222133	0.32099342	0.10420735
0.63178133	0.81231898	0.09652907
0.59870107	0.06884102	0.6057447
0.62078315	0.56449077	0.60322579
0.1137698	0.32521482	0.62661574
0.11980192	0.81812016	0.63551116
0.12174018	0.06865295	0.12254046
0.12390583	0.56646276	0.11358498
0.59901183	0.31715801	0.10254556
0.63141001	0.81401264	0.10725598
0.61094659	0.066708	0.59500781
0.62507367	0.55849869	0.60146608
0.1177779	0.3219174	0.6262588
0.10883051	0.81270226	0.63716906
0.11265481	0.06245116	0.12719188
0.12091539	0.56692581	0.12485231
0.5953698	0.30735925	0.11137279
0.62814436	0.81321806	0.12042955
0.61479958	0.06238978	0.59918242
0.63936558	0.55882741	0.60086778
0.11920419	0.3216881	0.62839934
0.11503512	0.81468114	0.63278827
0.11422526	0.06124962	0.13842802
0.12376489	0.56938776	0.12510065
0.60833205	0.30111077	0.12302022
0.6289536	0.80457679	0.11472194
0.60592849	0.06330052	0.61036249
0.64365698	0.56114685	0.60205331
0.11204396	0.32020278	0.62837747
0.13180495	0.81910358	0.62767807
0.12922193	0.06550198	0.1467798
0.13332678	0.56700363	0.12546988
0.62039484	0.30147005	0.12780706
0.63924707	0.79441829	0.09659528
0.59608422	0.06325353	0.61262062
0.63339383	0.56178559	0.60020036
0.10615565	0.31548617	0.6207779
0.14082235	0.81886254	0.62562308
0.13680897	0.06947076	0.14343412
0.14169927	0.56319824	0.13130857
0.6164054	0.30294719	0.12443891
0.64622044	0.79370794	0.09717121
0.59971271	0.06104186	0.60008717
0.62315686	0.56104787	0.60176435
0.10941007	0.31234182	0.60914312
0.13267802	0.81472271	0.6311428
0.12709345	0.06736018	0.13471955
0.13618839	0.56353044	0.13414616
0.61097461	0.30181344	0.12145958
0.64137624	0.80104164	0.1105238
0.61305858	0.05866293	0.59023792
0.62224372	0.56074962	0.61172586
0.12194639	0.3123462	0.60635922
0.11632846	0.81398436	0.6416917
0.11968156	0.06231735	0.1347439
0.12045913	0.56531636	0.13297893
0.61818425	0.29883827	0.12644376
0.62704154	0.80239446	0.1197897
0.62439906	0.05878614	0.60391947
0.62812305	0.56157323	0.62373924
0.1213587	0.31084308	0.61725263
0.11053371	0.81675192	0.64198697
0.12832339	0.06191285	0.13225514
0.11585538	0.56553145	0.13012436
0.63253443	0.29823383	0.1354638
0.61986877	0.7970894	0.12590202
0.62765594	0.05895296	0.62927459
0.63119389	0.56077163	0.63504598
0.11091603	0.30887623	0.62633105
0.11735361	0.81809802	0.63500267
0.13470067	0.06773782	0.12247614
0.1302719	0.56454495	0.13281618
0.64392791	0.30282923	0.13579035
0.62256956	0.79122642	0.13367819
0.62804955	0.05803603	0.64003303
0.62511114	0.55649239	0.64102783
0.11263062	0.31129739	0.62544979
0.11957983	0.81699353	0.63628613
0.12620987	0.07354328	0.11207215
0.14009338	0.5630098	0.14059832
0.6472032	0.30194423	0.12558858
0.62293122	0.78901538	0.13699439
0.63151626	0.05743466	0.63410819
0.62046378	0.55086544	0.63730316
0.13335077	0.31793091	0.62443349
0.10449371	0.8142487	0.64391215
0.11501672	0.07283592	0.10654338
0.13032332	0.56122797	0.14844427
0.64162036	0.29499388	0.11958919
0.61527951	0.79169334	0.13303919
0.64012671	0.0575271	0.6305683
0.62487741	0.55066366	0.63098529
0.14110467	0.32283007	0.62948757
0.10048989	0.81167095	0.64118808
0.11918615	0.06485595	0.10983599
0.12970872	0.55961655	0.14517785
0.642102	0.29479558	0.12108028
0.60906097	0.79807384	0.12707638
0.6455784	0.0559685	0.63700158
0.6316552	0.55525646	0.6372743
0.13433453	0.32072132	0.63196605
0.11370159	0.8128373	0.62649694
0.12230296	0.05565902	0.11445471
0.13203612	0.55866291	0.13588172
0.65191134	0.3001829	0.12345716
0.60633272	0.80022835	0.13341729
0.64058262	0.05151001	0.64444817
0.62803414	0.55540622	0.64745417
0.13121422	0.31469686	0.63087447
0.12196593	0.81539106	0.61894012
0.11636733	0.05362958	0.11174305
0.13034056	0.55695396	0.13614005
0.65504474	0.30277168	0.12352423
0.60986706	0.79664418	0.14516327
0.63252888	0.048899	0.64660222
0.61403372	0.55020574	0.64770251
0.14571909	0.31109295	0.62982959
0.11988667	0.81656404	0.62357747
0.11490419	0.05637305	0.10352194
0.13510259	0.55485539	0.14195808
0.64588313	0.30029847	0.12695332
0.6188175	0.7985017	0.14609673
0.63285792	0.05351221	0.64727393
0.6091582	0.54724183	0.64307245
0.16480374	0.31343113	0.63275826
0.11017477	0.81354223	0.633227
0.11886321	0.05520936	0.09598335
0.13713097	0.5539217	0.14430517
0.64135972	0.29672004	0.13727179
0.62224658	0.80128466	0.14291939
0.64183641	0.05648977	0.64826321
0.6211758	0.54952648	0.64275409
0.17002881	0.31613231	0.63725798
0.1034506	0.80968883	0.63732474
0.12236397	0.05008631	0.09181195
0.12858144	0.55389089	0.14147722
0.64869785	0.29611928	0.15051022
0.62143532	0.80184675	0.14567805
0.64839176	0.05020086	0.65007361
0.63399326	0.55240837	0.64881691
0.1515784	0.31232929	0.63701299
0.10982769	0.80989922	0.63440124
0.1248058	0.05476818	0.09505209
0.12197605	0.555453	0.13683239
0.65420625	0.29999837	0.15899459
0.61638319	0.80218974	0.15045256
0.64576006	0.0478239	0.65040809
0.63810725	0.55423677	0.65809409
0.12701804	0.30862267	0.63287906
0.11901203	0.81180049	0.6238224
0.13162647	0.06285762	0.10414741
0.12146488	0.55794139	0.13629714
0.64821489	0.29900239	0.16128782
0.61107123	0.79838844	0.14951026
0.64055125	0.05029587	0.64409836
0.63373365	0.55385651	0.66286929
0.12381815	0.31049087	0.63076084
0.11524713	0.8089172	0.61238207
0.13687285	0.06256561	0.11289629
0.12167428	0.56035246	0.14196594
0.63788378	0.29179672	0.15571473
0.61555314	0.79349413	0.14398161
0.64085366	0.05091227	0.6318407
0.63150254	0.55173776	0.66017489
0.14034223	0.31291211	0.63138139
0.10626432	0.80548326	0.6090632
0.129172	0.05846545	0.11904398
0.11906063	0.56046431	0.14593543
0.63082231	0.28865911	0.1491158
0.62620535	0.79588236	0.14019009
0.64155577	0.04755929	0.61996858
0.63869591	0.5503849	0.65790342
0.15526192	0.31010912	0.63057067
0.10920276	0.80613313	0.61559357
0.12038091	0.05760716	0.12771079
0.11903275	0.55763757	0.14528454
0.62665545	0.29567317	0.14569744
0.62940277	0.8005464	0.14081696
0.63308404	0.04311922	0.61366434
0.64484991	0.55079937	0.66329607
0.14477212	0.30378641	0.62804364
0.11706459	0.80968514	0.62273654
0.12904409	0.06065819	0.14021242
0.12583132	0.55681376	0.14229797
0.62935703	0.30356179	0.14657426
0.6262753	0.79865216	0.14385549
0.62295362	0.04270505	0.61277666
0.63407	0.55083721	0.66821111
0.12345743	0.30411932	0.62179922
0.11878436	0.81074449	0.61686331
0.14813622	0.06208083	0.14452277
0.13609387	0.55850613	0.13917329
0.63408653	0.30207788	0.15110819
0.62981315	0.7918766	0.14254465
0.6240361	0.04805662	0.61119116
0.61841157	0.55005877	0.66647289
0.12012809	0.31336415	0.62064755
0.11245125	0.80938981	0.61096006
0.15631814	0.05957061	0.13242447
0.14116975	0.55708145	0.13736558
0.63174882	0.29414503	0.15548537
0.63733808	0.78647642	0.13379191
0.6286524	0.05008289	0.60775588
0.61173405	0.54790382	0.66027123
0.14181592	0.31636224	0.63118348
0.10901592	0.81004639	0.61678674
0.14442341	0.05581362	0.11415504
0.13198083	0.55319988	0.13541089
0.62498063	0.2910009	0.15410896
0.6366578	0.7898509	0.12855495
0.63033689	0.04650699	0.60679347
0.61222401	0.54794746	0.65873808
0.14062693	0.31212607	0.64713791
0.11143653	0.81167495	0.6301638
0.13204407	0.05420882	0.11049449
0.12071705	0.55491408	0.12988549
0.62278033	0.29570772	0.14406701
0.62683571	0.79590439	0.1318584
0.63090243	0.04659689	0.61686017
0.61321593	0.55255816	0.6620968
0.11949964	0.30679299	0.65254055
0.1212812	0.81428878	0.63170346
0.13083959	0.0578363	0.11852601
0.12590843	0.56132012	0.1242223
0.62804388	0.29819978	0.13679541
0.6191645	0.79246983	0.13755393
0.63352042	0.05137451	0.62668081
0.61661718	0.55365362	0.66104027
0.11600531	0.3052854	0.6485379
0.12936665	0.81722168	0.62161954
0.1356973	0.06006828	0.12506432
0.13723856	0.56564379	0.12754721
0.63390037	0.29662601	0.14056945
0.62125914	0.78412119	0.13946787
0.63667108	0.05378081	0.62307937
0.61847176	0.55097355	0.64960692
0.12696752	0.3100309	0.64115652
0.11888867	0.81449188	0.61590269
0.13923754	0.05448922	0.12717779
0.13619695	0.56480719	0.1333474
0.63181793	0.2965737	0.13551572
0.62365446	0.78763795	0.13345843
0.63381971	0.05003587	0.61732514
0.61680817	0.54835266	0.64166185
0.13767186	0.31562521	0.63500024
0.10033304	0.80973093	0.62226544
0.13557684	0.04899346	0.12949622
0.13249544	0.56171232	0.13755391
0.62368202	0.2986123	0.12006866
0.62418515	0.79567523	0.1256489
0.6246723	0.04406932	0.61843656
0.61728029	0.55277777	0.64133043
0.1357694	0.3168342	0.63156695
0.09610681	0.80592974	0.63381601
0.13057117	0.04983097	0.14321016
0.13627012	0.56017986	0.13920521
0.62226578	0.29961751	0.12381511
0.62456258	0.79475681	0.12693855
0.62047099	0.04597326	0.62127092
0.61464797	0.55782963	0.64339204
0.12217279	0.314376	0.63320929
0.11189292	0.80735691	0.63674581
0.13340285	0.05646026	0.15111407
0.13764387	0.55911666	0.13776839
0.62828521	0.2981094	0.1382207
0.61786101	0.79218032	0.13255897
0.62839293	0.05378979	0.62340802
0.61508942	0.55551626	0.6391417
0.11907844	0.31414642	0.63151305
0.13017789	0.81318478	0.63190101
0.14066798	0.06141875	0.14482018
0.13012247	0.5552929	0.13503552
0.62850772	0.29653541	0.13638311
0.60672143	0.79647248	0.12697516
0.63731198	0.0600034	0.62815481
0.61742878	0.54811136	0.62837275
0.13098103	0.31920678	0.62433127
0.12869796	0.81626984	0.62939879
0.1315234	0.05974014	0.12934445
0.12673642	0.54931978	0.13100722
0.6204126	0.29534629	0.12251584
0.60740805	0.80491815	0.11229166
0.63894493	0.06125709	0.63892442
0.62212728	0.54495778	0.62135567
0.13909891	0.32293812	0.6223715
0.11735929	0.8142168	0.63076752
0.11494179	0.05784414	0.11259351
0.1328431	0.5466113	0.12779434
0.61253724	0.29439156	0.12149234
0.61999506	0.80922462	0.10578765
0.63178044	0.05913848	0.648921
0.6315454	0.54757382	0.62161879
0.12810316	0.31574815	0.62718797
0.11869843	0.81244038	0.63058794
0.11068908	0.06269251	0.1053985
0.13312857	0.55143821	0.12634845
0.61597381	0.29568254	0.13004111
0.62475069	0.80676843	0.11733775
0.62275186	0.05985363	0.65638614
0.63965473	0.55290609	0.61956549
0.10947143	0.30913719	0.63015612
0.13111737	0.81672493	0.62198023
0.11600741	0.07042027	0.11350059
0.11795194	0.55984763	0.11962187
0.62832559	0.30238762	0.13924311
0.61709287	0.80398168	0.13583743
0.62084738	0.06458913	0.66223504
0.63848586	0.55590601	0.61434758
0.10225942	0.31446678	0.62416351
0.13545878	0.82390477	0.61272491
0.11746954	0.0724814	0.12720141
0.10689212	0.56384861	0.10967121
0.63248891	0.3099706	0.1366835
0.60985549	0.80504546	0.13131877
0.62663864	0.06833725	0.6627281
0.63475664	0.55901242	0.61265607
0.11383979	0.3233931	0.61335146
0.12335677	0.82439918	0.61369056
0.11077116	0.06731042	0.12097378
0.11117564	0.56247546	0.10718388
0.6248005	0.31223972	0.12627084
0.61637458	0.81105793	0.1157534
0.62356829	0.06705557	0.65411212
0.63538747	0.56795446	0.61322229
0.1266186	0.3189231	0.6073576
0.11422722	0.81708327	0.61795753
0.1074427	0.06201521	0.10300733
0.12094801	0.56421704	0.10983308
0.62000822	0.30927259	0.11939442
0.62961578	0.81925448	0.11439316
0.60954951	0.06077915	0.63859151
0.639956	0.5758373	0.60910914
0.12329162	0.31221956	0.61226373
0.12790473	0.81111322	0.62134923
0.11444414	0.06451574	0.10527398
0.11974729	0.5715362	0.1082934
0.62415994	0.31139144	0.12188134
0.62944084	0.82501484	0.12926219
0.60418293	0.05941601	0.62194674
0.63880265	0.57592647	0.60133066
0.1081141	0.3169346	0.62174196
0.15188177	0.81576715	0.62480252
0.12557057	0.07047194	0.12610967
0.10870862	0.57472019	0.10045315
0.6290787	0.32090874	0.12777163
0.62227085	0.82394887	0.13721687
0.60996184	0.06593523	0.61240152
0.62971021	0.57240111	0.60405683
0.10116803	0.32558048	0.62079712
0.15257063	0.82442418	0.63062696
0.13000339	0.06872427	0.14003699
0.10066881	0.56971623	0.0988782
0.62584867	0.32736341	0.12182524
0.62372988	0.8196587	0.12467901
0.61959163	0.07228278	0.61425704
0.62004902	0.5724861	0.6077145
0.10843759	0.32620752	0.61037352
0.13213968	0.82386138	0.62868161
0.12789716	0.0674406	0.13720974
0.10432817	0.56623221	0.10482136
0.61653447	0.32243401	0.10539912
0.63100949	0.82362359	0.10509603
0.62327742	0.07102283	0.62218074
0.6177488	0.57706426	0.59897475
0.10845606	0.31994822	0.6037987
0.11819516	0.81668419	0.61925124
0.12331719	0.07056196	0.12587881
0.10952778	0.57240177	0.10817453
0.60950108	0.31886023	0.09004363
0.62879751	0.83056357	0.09758824
0.61343238	0.06708354	0.62313033
0.61743305	0.58278468	0.59100544
0.09983528	0.31534996	0.61131728
0.12759751	0.81778411	0.61068673
0.120629	0.06984179	0.12058807
0.10003591	0.57977818	0.10609745
0.61260765	0.32791252	0.09027408
0.61766714	0.82632258	0.1123578
0.5989198	0.06836524	0.62161644
0.61244399	0.58601602	0.59591634
0.09509146	0.31661645	0.61302546
0.14788144	0.82831892	0.60884135
0.11984487	0.06951743	0.1267949
0.08288528	0.57992447	0.09977358
0.62072521	0.33588201	0.10148229
0.61216381	0.82052573	0.13021615
0.60160439	0.0749055	0.62259993
0.61317908	0.58355166	0.60733274
0.10637751	0.31960352	0.5996004
0.1500889	0.83061216	0.61365816
0.11927519	0.07125119	0.13191865
0.07982124	0.57882263	0.09388047
0.62040626	0.33294773	0.10592477
0.61820654	0.82498409	0.12281024
0.61292678	0.08118438	0.61743894
0.61901528	0.57721586	0.61238432
0.12330388	0.31792533	0.59437153
0.13191875	0.82445046	0.6179094
0.11470137	0.07236083	0.12295565
0.0980877	0.58213789	0.09551698
0.60876688	0.32830328	0.09301524
0.6259246	0.83091277	0.1009081
0.6135684	0.08031177	0.6143577
0.61506931	0.57192534	0.60389918
0.12852308	0.31463153	0.60595509
0.12678132	0.8207107	0.61540252
0.10714445	0.07440165	0.1112541
0.11691829	0.58393679	0.1019949
0.59737071	0.33015527	0.08380127
0.62707663	0.83274661	0.09854639
0.60443863	0.07353849	0.61979344
0.60480004	0.56901201	0.59398568
0.12433856	0.31548414	0.62449996
0.14364312	0.82629317	0.6132002
0.10477247	0.07798514	0.11629156
0.12225988	0.57832955	0.10614615
0.59061063	0.3350412	0.09557857
0.61967855	0.83257769	0.11190185
0.60650749	0.07020846	0.61727151
0.60598257	0.56955219	0.59066737
0.12464582	0.32231062	0.6258596
0.16194265	0.83166043	0.61647976
0.11044325	0.08251453	0.13143551
0.11693274	0.57124934	0.113902
0.59155974	0.33603864	0.11427617
0.61141158	0.83186167	0.12108961
0.62242456	0.07425617	0.60767101
0.6197551	0.5713652	0.59774596
0.12824566	0.32959001	0.60151296
0.15056789	0.82808989	0.61179127
0.11145528	0.08216787	0.12986066
0.11309822	0.57280357	0.12240346
0.59580669	0.33118198	0.11342316
0.61084588	0.82844449	0.11063445
0.63005812	0.07310614	0.60462839
0.62272796	0.56606292	0.60408113
0.1312819	0.33114772	0.59943868
0.12060248	0.81967974	0.60856635
0.10279686	0.07755561	0.12241129
0.12101841	0.57718715	0.12369562
0.5974804	0.32355107	0.10067256
0.61998609	0.82357667	0.09609577
0.62460898	0.06532072	0.61435497
0.61285821	0.56241007	0.59762044
0.12727329	0.32783002	0.62172317
0.11711317	0.81803906	0.61450542
0.09761871	0.07315614	0.12830649
0.13107032	0.57665601	0.11688817
0.59525127	0.31930056	0.0969564
0.62921763	0.82112096	0.10230474
0.61813857	0.06029064	0.6258469
0.61645679	0.56683053	0.59265658
0.11894913	0.3239741	0.62436852
0.14428928	0.82535183	0.6200522
0.10404318	0.0711372	0.13889739
0.12680593	0.57307111	0.1128301
0.59227771	0.31813175	0.10275218
0.62632646	0.81800856	0.11388419
0.61876008	0.06198242	0.62440975
0.63451896	0.56987291	0.61064066
0.11426817	0.32191864	0.60625979
0.15836198	0.83131001	0.6270532
0.11012018	0.07331098	0.13896861
0.11370739	0.5720816	0.11858601
0.59688955	0.3181317	0.11381451
0.61509778	0.81479326	0.10429013
0.6283314	0.06209616	0.61370627
0.64797437	0.56477685	0.62150401
0.11685899	0.32059733	0.60305338
0.1358357	0.82889187	0.63678172
0.10134998	0.07340304	0.12645083
0.11292123	0.57694288	0.12439974
0.60076542	0.31673814	0.11532374
0.62161266	0.81501554	0.10582834
0.63850982	0.05939183	0.61198727
0.64537899	0.55604638	0.60942366
0.1178818	0.31825731	0.62158507
0.10555669	0.81922087	0.63517712
0.09086431	0.07180427	0.11415503
0.12457384	0.58245422	0.12313325
0.60040924	0.31411533	0.10590354
0.63256814	0.81814348	0.11197653
0.63367684	0.060281	0.62072956
0.63265535	0.55352314	0.60729713
0.11322432	0.31761428	0.63888362
0.10115138	0.81350427	0.62179227
0.09360223	0.06859889	0.12152985
0.13803619	0.57901506	0.12129031
0.60433689	0.31335	0.09774227
0.62792758	0.81975631	0.10645338
0.62049664	0.06539377	0.62240898
0.62449021	0.56085622	0.62202878
0.10857966	0.31777134	0.63437863
0.11771512	0.81547486	0.62039482
0.11396017	0.06856851	0.13606513
0.14054231	0.56783212	0.12636287
0.61580103	0.31343493	0.10355105
0.61598765	0.81644035	0.10302124
0.62193741	0.06617445	0.61020149
0.62566476	0.56715958	0.62787829
0.10268972	0.31637234	0.61820032
0.1230332	0.81626942	0.63208997
0.1338128	0.07260276	0.13361694
0.13240442	0.56282649	0.13569606
0.61797321	0.30936708	0.11671864
0.61473262	0.8114149	0.10967741
0.63051645	0.06231585	0.60284543
0.62921345	0.56463664	0.61449395
0.0964226	0.31630435	0.61577459
0.10404499	0.81158532	0.64041434
0.1397425	0.07472445	0.12318963
0.12435393	0.5692119	0.14158761
0.61688725	0.30474014	0.12378313
0.62623453	0.80908917	0.11781404
0.63007956	0.06121439	0.61463265
0.62329418	0.56064117	0.61542748
0.09750237	0.31670166	0.62678728
0.08732075	0.80459748	0.64235935
0.13746589	0.06997703	0.13224583
0.12122628	0.57300446	0.1391367
0.62103413	0.30752579	0.1168932
0.64057913	0.80983311	0.1232044
0.62205477	0.06329089	0.62515572
0.60907409	0.56206847	0.62563891
0.10673634	0.31139634	0.63496474
0.09431086	0.80245538	0.64461034
0.13508287	0.06625648	0.14591303
0.11408641	0.56392831	0.13257188
0.62991439	0.31261203	0.11690557
0.64124291	0.80987994	0.12723505
0.61593668	0.06383237	0.62047648
0.60972359	0.56621487	0.62766271
0.11443304	0.30688309	0.63213688
0.10833135	0.80766844	0.64799897
0.14180761	0.06678287	0.14423437
0.10467328	0.55595292	0.13787483
0.63650844	0.31214478	0.13082514
0.63510094	0.80845811	0.13194988
0.62295105	0.06316732	0.62052717
0.62043843	0.56472193	0.62269192
0.11403061	0.30875582	0.62724796
0.11152197	0.81522086	0.65043116
0.14726456	0.06823227	0.13031223
0.10498122	0.55875958	0.14301808
0.63404886	0.31169991	0.13291556
0.63376192	0.80732565	0.13535188
0.63732381	0.06386132	0.63576266
0.61779973	0.56356926	0.61863607
0.11669578	0.31421918	0.63517577
0.10497459	0.82004083	0.64431147
0.14128153	0.06438809	0.12102752
0.11869933	0.56539116	0.13275485
0.62656403	0.31320033	0.12731244
0.63868359	0.80869146	0.13851186
0.64685865	0.06658961	0.6511662
0.60091723	0.56543132	0.6224599
0.12206866	0.31511915	0.6377161
0.09902495	0.81677872	0.62833246
0.12813704	0.05636039	0.12192556
0.1349212	0.56332278	0.11995381
0.62828323	0.31160811	0.13937585
0.64365753	0.81111435	0.14123933
0.63809695	0.06728971	0.65356309
0.58557493	0.56899099	0.62632012
0.12260914	0.31138325	0.63724791
0.10628717	0.81158305	0.6167505
0.11719579	0.05399839	0.12682845
0.13394853	0.5563784	0.12340821
0.6456126	0.30644595	0.14665177
0.64012783	0.81016125	0.14184034
0.62253277	0.0658864	0.63751718
0.59415153	0.57067177	0.62466085
0.11939296	0.31023312	0.64413353
0.12003972	0.81152257	0.61487443
0.11637318	0.05861552	0.12467868
0.12109149	0.55542079	0.1331778
0.65923726	0.30637369	0.13965934
0.62759565	0.80791413	0.14202477
0.6272663	0.06603391	0.62455727
0.60834338	0.56768123	0.62519588
0.12022606	0.31464932	0.64649227
0.12168467	0.81539025	0.61953795
0.12349295	0.05796723	0.11329098
0.12218518	0.56222564	0.13374688
0.65919568	0.307611	0.13295866
0.61544132	0.80937317	0.14471982
0.63828235	0.06635492	0.62574023
0.60695977	0.56435378	0.63333018
0.12478524	0.31735166	0.63776393
0.12161524	0.81699235	0.62312293
0.12605312	0.05256305	0.10686716
0.13228741	0.56778946	0.12346849
0.65024956	0.30564247	0.13820763
0.62104749	0.81158907	0.15166848
0.63083177	0.0657599	0.63401947
0.59478097	0.56486903	0.64674772
0.13038482	0.31375779	0.63286343
0.12727584	0.81306485	0.61766896
0.11953662	0.05357561	0.11746417
0.13466193	0.56414614	0.11992714
0.64930266	0.30526266	0.14868294
0.63458316	0.81029711	0.15835065
0.61666534	0.06317379	0.63050535
0.59670778	0.56542128	0.65377951
0.1320744	0.31280977	0.63966945
0.13367895	0.81158707	0.6094038
0.11345294	0.06213117	0.13176635
0.12598534	0.55431273	0.12786646
0.65510041	0.30634119	0.15116899
0.63460663	0.80873021	0.15517411
0.61146413	0.06040476	0.6193087
0.61345032	0.56413241	0.65563628
0.13064038	0.31961052	0.65189458
0.1358296	0.81882919	0.60691324
0.11862322	0.06486763	0.13735302
0.12311668	0.55051805	0.13531927
0.65507135	0.30364577	0.14616525
0.62216834	0.81035677	0.14265921
0.61642198	0.06112699	0.61686017
0.63369	0.56393588	0.66481284
0.13570066	0.32351767	0.65186445
0.13415461	0.8243929	0.6123807
0.12438778	0.05895467	0.13326455
0.13323462	0.55726388	0.13298833
0.64240929	0.30304654	0.1449058
0.61741483	0.80997555	0.13709805
0.62205771	0.06390651	0.63250744
0.64129009	0.56393965	0.6737401
0.14767794	0.3217063	0.63630014
0.12971159	0.82024459	0.61827943
0.12222292	0.05351513	0.12518244
0.14225687	0.56300455	0.12670254
0.63254768	0.3051325	0.1528697
0.62335074	0.80501731	0.14100766
0.62186906	0.06439164	0.64291778
0.63426016	0.56302807	0.66669617
0.15016988	0.31687881	0.62527368
0.13039946	0.81642591	0.61773086
0.12030918	0.05343631	0.12071563
0.13327461	0.5594792	0.12558361
0.63733892	0.30419114	0.16300714
0.62597682	0.79941629	0.1441439
0.62020741	0.06094906	0.63057309
0.6296132	0.56358236	0.65897107
0.14090131	0.31214889	0.62738973
0.13094911	0.82080336	0.61203543
0.12574303	0.05615463	0.12269325
0.12287466	0.55596294	0.12986183
0.64132001	0.30186928	0.16369952
0.62057231	0.79793131	0.13980532
0.62434582	0.05879371	0.61290619
0.64072925	0.56559472	0.66465469
0.1415959	0.30949044	0.63390239
0.1249998	0.82337348	0.60721125
0.1316592	0.0574854	0.11887847
0.13103939	0.5567902	0.1380441
0.63767001	0.30232856	0.1489216
0.61535604	0.80027803	0.13243433
0.63089067	0.0611619	0.61684495
0.65904839	0.56360826	0.674246
0.15485254	0.31165225	0.63184842
0.12010021	0.8213142	0.61127796
0.13446477	0.05623607	0.11291061
0.15114165	0.56023808	0.14116188
0.63396281	0.30357575	0.13315143
0.61648245	0.80367902	0.13127423
0.63372272	0.06223745	0.63008177
0.65460473	0.5551003	0.67996415
0.16566247	0.31828789	0.62125334
0.12233021	0.81752857	0.62136558
0.13750202	0.05566228	0.11276878
0.15538588	0.56066061	0.13744969
0.63353636	0.30117375	0.13453483
0.62129191	0.80505067	0.1404178
0.6324467	0.05828172	0.63249881
0.64609297	0.5478674	0.67684054
0.16465904	0.32165698	0.6161321
0.12298274	0.81747659	0.62863072
0.14008925	0.05873592	0.11929422
0.14568025	0.55677339	0.13058607
0.62963387	0.29835899	0.14943481
0.62145274	0.80279021	0.14767247
0.6326812	0.05333468	0.62563708
0.65261707	0.54671689	0.66571013
0.15657805	0.3230812	0.63188735
0.11560778	0.82230765	0.62933776
0.14061084	0.06400348	0.12575206
0.13783664	0.55281753	0.13217365
0.62341266	0.2965816	0.15433878
0.61239648	0.7991173	0.14727923
0.63470982	0.05154355	0.62651351
0.66077818	0.54745528	0.65137965
0.14779722	0.32401983	0.64259902
0.11256139	0.82515283	0.62468331
0.13959034	0.06528158	0.1271251
0.13661661	0.55459738	0.13983193
0.62087498	0.29682356	0.14647174
0.6083109	0.79748752	0.13919596
0.63280099	0.0525237	0.63775212
0.66027392	0.54689254	0.64278415
0.14627607	0.32323054	0.62687271
0.12594078	0.82162771	0.62348956
0.13985542	0.05883941	0.12118295
0.13237255	0.55825459	0.14156362
0.62352581	0.29839008	0.14593984
0.61299897	0.79789171	0.13197386
0.62859928	0.05213248	0.64354035
0.6539142	0.5469765	0.63783295
0.14723871	0.32024237	0.61519127
0.13536593	0.81604018	0.63135324
0.14149005	0.053365	0.11141989
0.12530745	0.55829849	0.13233489
0.62964521	0.29703857	0.15295359
0.61634937	0.79501134	0.13132231
0.62394104	0.04835752	0.63400872
0.64767936	0.5503424	0.63067514
0.139445	0.31560349	0.61835972
0.13008965	0.81465897	0.63904944
0.1396862	0.05819176	0.11313196
0.1234862	0.55752114	0.12314595
0.63557932	0.29254913	0.15038744
0.61328771	0.78965085	0.1396631
0.62239005	0.0469824	0.6327994
0.64411116	0.55554942	0.62537661
0.11909797	0.31228586	0.62862918
0.12483764	0.81670034	0.6365123
0.13098631	0.06618757	0.12372835
0.12618088	0.56159737	0.12506215
0.63905229	0.28960312	0.14014104
0.60867604	0.78886534	0.14076423
0.6236867	0.04780886	0.64260173
0.6464045	0.55883723	0.62756809
0.10805931	0.31533262	0.63016636
0.13220866	0.81583772	0.62907407
0.11971619	0.06670677	0.12938285
0.12759014	0.56586581	0.1348509
0.64118042	0.29045045	0.13381136
0.61182112	0.79344136	0.13480331
0.62446849	0.04720123	0.64805704
0.6492718	0.55694185	0.63458842
0.10746501	0.32067632	0.62282999
0.14286214	0.80978819	0.63256633
0.11413643	0.06089757	0.12235675
0.1291478	0.56511177	0.1356724
0.63751773	0.29030341	0.13332179
0.6213965	0.79769602	0.13637462
0.62436675	0.04601117	0.63856953
0.64405349	0.55208211	0.63717397
0.11357308	0.31740918	0.62215173
0.14489385	0.80760789	0.64144024
0.11546684	0.05844464	0.11295741
0.1318299	0.56111693	0.12384619
0.62966111	0.29183236	0.13177384
0.62814262	0.79608458	0.1360047
0.62709228	0.04541812	0.62593081
0.63407402	0.54985815	0.63224759
0.1223583	0.31010249	0.62907785
0.13687965	0.81045794	0.64333357
0.11833064	0.06452718	0.10893912
0.12761509	0.55883047	0.11615369
0.6256121	0.29608791	0.126552
0.62870754	0.7941107	0.1300715
0.62424775	0.04773754	0.62744595
0.63146182	0.55155074	0.62898
0.12639498	0.31055056	0.63192896
0.13418793	0.81280922	0.63569982
0.11937992	0.07057658	0.11025475
0.11743954	0.55848231	0.12032171
0.62578924	0.29898885	0.12231761
0.6300551	0.80084546	0.12401435
0.61516816	0.05186575	0.64037356
0.63436588	0.55357873	0.62844796
0.12551869	0.31668315	0.62540665
0.14133091	0.81258641	0.62835512
0.11925727	0.07031652	0.10936949
0.11615415	0.55913508	0.12922252
0.62460289	0.30128129	0.12205278
0.63513457	0.80768033	0.12371606
0.60582891	0.05444641	0.64066883
0.62595486	0.55138087	0.62373122
0.12597218	0.31650494	0.62193254
0.13739409	0.81253167	0.62581913
0.12072322	0.0649833	0.10523787
0.12958296	0.56224383	0.12638704
0.62328616	0.30192107	0.12176838
0.64038896	0.8073104	0.12587299
0.61077087	0.05484867	0.62857181
0.60892636	0.55013421	0.62153592
0.12562371	0.3116027	0.62371973
0.12624699	0.81505449	0.62771884
0.12351045	0.06103751	0.10654394
0.13273897	0.56449166	0.11430547
0.62363765	0.30332893	0.11719
0.63885219	0.80439589	0.11866963
0.62054318	0.05443908	0.62129883
0.59874756	0.55455529	0.62406503
0.11766011	0.31111308	0.62358297
0.11943172	0.82046985	0.63522379
0.12244656	0.06018802	0.11217995
0.12716694	0.56265873	0.11113145
0.62355405	0.30660307	0.11015261
0.63286309	0.80225759	0.11017079
0.61740608	0.05524587	0.6250632
0.60215041	0.55971412	0.62593643
0.10962481	0.31358517	0.61567329
0.11776421	0.82318405	0.63865641
0.11571786	0.05958553	0.1124414
0.12130986	0.56020053	0.12035018
0.62078353	0.31059409	0.10509828
0.62813357	0.80324799	0.11087461
0.60645221	0.056315	0.62823041
0.60610004	0.56098872	0.62518759
0.11014017	0.31466425	0.60604556
0.11589312	0.81954294	0.62870742
0.11355534	0.05699961	0.10498068
0.11620169	0.56212981	0.12637274
0.61995598	0.31479592	0.11299158
0.62726777	0.80698568	0.12039833
0.61339346	0.05612324	0.62451705
0.60073837	0.55804102	0.623219
0.11617551	0.31317281	0.6064062
0.11046428	0.81389291	0.61810151
0.12102233	0.05687014	0.1029851
0.11618428	0.56702771	0.1227701
0.61826018	0.31555245	0.11184149
0.62830526	0.80748097	0.12671336
0.62481965	0.05828451	0.6177715
0.59356279	0.55505184	0.62199268
0.11846422	0.3115931	0.61596426
0.10506492	0.81398811	0.61410243
0.12817745	0.06122943	0.11737481
0.11670991	0.5686462	0.12232179
0.61476345	0.31241826	0.10683953
0.62614096	0.80306244	0.12169627
0.61853499	0.06202827	0.61844331
0.5945157	0.55491715	0.62026854
0.11440172	0.31149252	0.62013252
0.10485036	0.81646571	0.61622687
0.12786011	0.06534995	0.13216161
0.10800052	0.56361746	0.1288428
0.61232121	0.30994795	0.11497935
0.6218779	0.80412077	0.11673546
0.60391847	0.06329404	0.62911952
0.6019393	0.55674744	0.61582527
0.11022131	0.31391496	0.61308638
0.10737907	0.81318233	0.61470139
0.12810346	0.0669324	0.13329421
0.09943302	0.56147318	0.13024891
0.6125514	0.30994041	0.12105269
0.62161614	0.81164957	0.12086522
0.60301065	0.06791361	0.63854212
0.60368133	0.55692351	0.61069225
0.11250463	0.31444736	0.60818651
0.1061274	0.80634577	0.60568734
0.13192138	0.06882669	0.13244321
0.10161321	0.56786688	0.12000144
0.60410296	0.31095926	0.12230036
0.62505403	0.8175043	0.12347106
0.62292501	0.07542989	0.63701762
0.59582755	0.55734443	0.61171098
0.11920815	0.31191671	0.61550832
0.10256751	0.80595186	0.60501207
0.13269338	0.0705302	0.13830904
0.11157862	0.57472171	0.10733734
0.59631631	0.31162819	0.11942945
0.62259622	0.81543985	0.12513157
0.64340911	0.07698204	0.6282239
0.59365843	0.56055507	0.6173052
0.11533573	0.31307821	0.6179944
0.10287519	0.81508496	0.6161044
0.12674522	0.07157687	0.14265612
0.1167863	0.57532123	0.10189913
0.59747266	0.31320915	0.11593226
0.61356249	0.81045272	0.12140549
0.65018275	0.07191834	0.62057745
0.60058514	0.56505618	0.61735327
0.10574504	0.31517167	0.60460127
0.11333062	0.82462883	0.62294287
0.11591233	0.07234152	0.1369137
0.11038054	0.5719604	0.10543344
0.60242789	0.31579871	0.11815111
0.61229932	0.80796089	0.11201816
0.64534648	0.06645058	0.6222714
0.60341865	0.56697464	0.61217512
0.10656279	0.31240503	0.59548652
0.12468272	0.82335992	0.61862017
0.10932939	0.07388141	0.12938902
0.10030166	0.56896679	0.11064769
0.60314196	0.31543426	0.12543594
0.6125738	0.81303	0.1073551
0.64211683	0.06363753	0.62710031
0.59338258	0.56891254	0.61245607
0.11039518	0.31090617	0.60802432
0.120252	0.81398578	0.61191536
0.1134637	0.07488332	0.13386183
0.10061053	0.57001714	0.11233275
0.59756752	0.31589718	0.12599922
0.60952116	0.81936152	0.10886874
0.6464666	0.06315926	0.6262119
0.58769931	0.56998153	0.61857972
0.11046247	0.3187532	0.62886842
0.11158521	0.81097575	0.61069433
0.11708715	0.0744975	0.1459111
0.11086073	0.56926528	0.11356233
0.59518952	0.31859635	0.11896562
0.60728013	0.82011721	0.11084725
0.64796733	0.06213427	0.62408643
0.60128413	0.5676809	0.62105235
0.10264066	0.33088004	0.63654605
0.1191193	0.81606426	0.61542526
0.112049	0.07314862	0.14724101
0.11378498	0.5636542	0.11747888
0.60205792	0.32004361	0.11942812
0.61179383	0.81680048	0.11061771
0.64136411	0.05916415	0.62679428
0.61928905	0.56758975	0.62161656
0.09843094	0.3322573	0.63170613
0.13000323	0.81563799	0.62247613
0.10871275	0.07096402	0.13685981
0.10841258	0.56104413	0.11929462
0.60617622	0.31985875	0.12381701
0.62061142	0.81746721	0.1120859
0.63080658	0.0575482	0.62990544
0.62060963	0.57067384	0.62190218
0.10156148	0.32167785	0.62553561
0.12461061	0.81175913	0.6225864
0.10647449	0.06741675	0.1264456
0.10487748	0.56349452	0.11442828
0.60312464	0.3215096	0.12046517
0.62379785	0.82537053	0.11868072
0.62224738	0.06329022	0.62589698
0.61025694	0.57232383	0.6206485
0.10826694	0.31656484	0.63045552
0.11850637	0.81297739	0.617606
0.10519156	0.06470717	0.12314284
0.10659731	0.56828714	0.10707249
0.6007871	0.32480996	0.11457129
0.62041865	0.82997625	0.12620439
0.61829943	0.07044749	0.61703952
0.61294581	0.57147786	0.61540704
0.11337949	0.32154175	0.64350966
0.12661068	0.82070432	0.61593319
0.10984967	0.0658963	0.1210951
0.1078701	0.57070544	0.106551
0.60266085	0.32512468	0.11933264
0.62039521	0.82126702	0.12840419
0.61893775	0.07177497	0.61154714
0.63387742	0.56951677	0.61270115
0.11715372	0.32805482	0.65036709
0.1343622	0.8275886	0.62309859
0.12171777	0.07003639	0.11856353
0.10374837	0.56855621	0.11300165
0.60433152	0.32232326	0.12655006
0.6239034	0.81675718	0.1239126
0.61803912	0.07013228	0.61120845
0.64929937	0.56874336	0.61500385
0.12312788	0.32246343	0.64114615
0.13457763	0.82727625	0.63169493
0.12983444	0.07086581	0.12076692
0.09747552	0.56638632	0.11549885
0.60052172	0.31914025	0.12761365
0.6279787	0.82673726	0.11209012
0.61166641	0.06951718	0.61018514
0.64737877	0.57153877	0.61742092
0.12385128	0.31632675	0.6219658
0.13490354	0.82223365	0.63016683
0.12505803	0.06625908	0.12479291
0.0971572	0.56793035	0.10778635
0.59730328	0.31886289	0.12390358
0.62703468	0.83310431	0.10069225
0.61037823	0.07207911	0.60580281
0.63918721	0.57258087	0.6217583
0.11493223	0.32153918	0.62155617
0.13588152	0.82243291	0.62053225
0.11510776	0.06545584	0.12033257
0.10068581	0.57432397	0.10431262
0.60224351	0.32154028	0.11946742
0.62074635	0.82743693	0.10192711
0.6164928	0.07558786	0.60112227
0.64034512	0.56942195	0.62090996
0.10389588	0.32511725	0.6350443
0.13826304	0.82950375	0.61881357
0.11934855	0.07068158	0.11880099
0.10471763	0.5803469	0.11623267
0.60989526	0.32381162	0.1200321
0.61541283	0.81959355	0.11358323
0.62086129	0.07465174	0.59744478
0.649664	0.56641234	0.61243619
0.10157659	0.32032607	0.6354513
0.14004622	0.83302993	0.63083722
0.13503062	0.073572	0.12175964
0.10664798	0.57855768	0.12946077
0.61564861	0.32234905	0.12047756
0.6165932	0.81684731	0.11712836
0.62263476	0.07331419	0.59882192
0.65255982	0.56857042	0.6095432
0.1116131	0.31740597	0.62205842
0.13784891	0.82588995	0.63231838
0.13828781	0.07165088	0.12562543
0.10986593	0.57452832	0.12251266
0.62210096	0.31783833	0.1139936
0.62432674	0.8202223	0.11695231
0.62741989	0.07601037	0.61145299
0.64595842	0.57375229	0.61373148
0.12422856	0.32064012	0.61621052
0.13340751	0.8184743	0.61862268
0.12326232	0.07012563	0.12580776
0.11876764	0.57650857	0.11154107
0.6315371	0.31727487	0.10830728
0.63096678	0.82160797	0.12314849
0.63635275	0.08138768	0.62484543
0.6345819	0.57544723	0.6112931
0.13012704	0.3258815	0.62414693
0.13146332	0.81917225	0.60774639
0.10918542	0.0741246	0.12392232
0.13326248	0.57810426	0.1212923
0.63809531	0.31814748	0.10737632
0.63131384	0.81578841	0.13038627
0.64676789	0.08160009	0.62716156
0.62935559	0.57340662	0.60417713
0.13488897	0.32785395	0.62914413
0.13109462	0.82490451	0.60840265
0.11367903	0.07912042	0.12161391
0.14405874	0.57449562	0.13835321
0.63557521	0.31450062	0.10855319
0.63124667	0.81006848	0.13000682
0.6540358	0.07113209	0.62282877
0.62701926	0.57303434	0.60253978
0.14311103	0.32549645	0.61722414
0.12983847	0.82623025	0.6178193
0.12535308	0.07896711	0.1251599
0.14474094	0.57302079	0.1409038
0.63131506	0.31073655	0.10611239
0.63404536	0.81488993	0.12031298
0.65780591	0.06426872	0.6230237
0.62381192	0.57570126	0.61543804
0.15134961	0.32157849	0.60075714
0.13021011	0.82061626	0.62470398
0.12749346	0.07413512	0.13054391
0.13988906	0.57428215	0.13013515
0.63540039	0.31026002	0.09931761
0.63266354	0.82242858	0.11120413
0.65530691	0.06841238	0.62849254
0.62096898	0.57659256	0.63044222
0.15228558	0.32082016	0.59763761
0.13649425	0.81695913	0.62548162
0.11583977	0.07092203	0.13240356
0.13610676	0.57675759	0.12193076
0.64338125	0.31372212	0.0958643
0.61948881	0.8214954	0.11441596
0.64202419	0.07397584	0.63550034
0.62114029	0.57135822	0.63516252
0.14444896	0.32391543	0.60321661
0.14245064	0.81627511	0.62672845
0.11061939	0.07471627	0.13060168
0.13719346	0.57795861	0.1241045
0.64898966	0.31854063	0.09905911
0.61144763	0.81215779	0.1221859
0.627191	0.07119822	0.63967706
0.62320269	0.5659329	0.62844882
0.13549633	0.32397054	0.61029225
0.13970089	0.81660303	0.63896396
0.12523629	0.07901968	0.12930392
0.13698595	0.57573186	0.13084817
0.64945567	0.32024567	0.10534714
0.61838326	0.80812823	0.12378249
0.6235961	0.06322549	0.63956278
0.62005984	0.56592595	0.62110626
0.13341035	0.31948074	0.61556019
0.13036261	0.81641282	0.64885096
0.14387393	0.07668492	0.13048279
0.13551777	0.57197801	0.13274717
0.64705812	0.31877849	0.10490724
0.62261653	0.81060962	0.12407591
0.62524952	0.05651902	0.63897771
0.62008521	0.56835718	0.62446102
0.13835757	0.31979249	0.61983314
0.12530964	0.81465973	0.64212014
0.13869015	0.06934151	0.13027596
0.14336257	0.56909765	0.12855305
0.64883044	0.3164274	0.10805317
0.61974976	0.81292378	0.12937274
0.61713941	0.05901868	0.64037481
0.62736753	0.56813369	0.63480068
0.14127462	0.32241992	0.62311538
0.12373088	0.81260178	0.62296868
0.12594952	0.06612987	0.12733191
0.1457336	0.56721945	0.12711382
0.65417751	0.31598535	0.11804338
0.62220781	0.81006148	0.13851618
0.60217234	0.06723559	0.6369456
0.63436209	0.56296668	0.63442632
0.14176973	0.32012916	0.62255003
0.12267468	0.81318246	0.61384486
0.1268532	0.06776037	0.12654052
0.14078191	0.56247998	0.13368442
0.64930954	0.31632777	0.12758336
0.63253184	0.80541728	0.14196177
0.59636512	0.06690911	0.62818769
0.63628985	0.55752328	0.6267506
0.14328626	0.31609944	0.62549324
0.12184479	0.81873247	0.62029121
0.13829953	0.06602253	0.12953068
0.13899081	0.55903109	0.13721306
0.63980125	0.31469823	0.13405113
0.64040771	0.80264651	0.13655575
0.60310443	0.05471551	0.62316093
0.63702103	0.55784289	0.62705288
0.14186411	0.31836696	0.63125475
0.12312664	0.82412809	0.62802127
0.14209592	0.0593908	0.1329035
0.13941528	0.55971086	0.13156516
0.63936854	0.31262385	0.13717286
0.63506299	0.80598097	0.13092757
0.61353638	0.05320608	0.62727423
0.64065922	0.56166023	0.63663018
0.13521609	0.32306985	0.63405757
0.12787151	0.82481243	0.6270901
0.13205748	0.05744641	0.12868651
0.138636	0.55778408	0.12524631
0.6442604	0.31259824	0.13912036
0.62220386	0.81481018	0.13158857
0.60984195	0.06280842	0.63645142
0.64236841	0.55959187	0.64099895
0.12298474	0.32031993	0.63890709
0.12476941	0.82183346	0.61792997
0.12013608	0.06049911	0.11532857
0.13586904	0.55368949	0.12850367
0.64233519	0.3121272	0.14127088
0.61982357	0.82173827	0.13659463
0.60090761	0.06693328	0.64108467
0.64154187	0.55276309	0.63158061
0.11311429	0.3145162	0.64651722
0.115011	0.82015609	0.61981409
0.12071075	0.06134078	0.11024067
0.13270815	0.55025644	0.13442655
0.63813847	0.30849481	0.14194754
0.63142181	0.81820085	0.13742536
0.6081453	0.06240518	0.63580034
0.64441424	0.54984604	0.62276919
0.11106849	0.31100634	0.64937984
0.10972102	0.8226637	0.63511748
0.1292903	0.05782561	0.12033982
0.1379831	0.55214989	0.13584099
0.63609594	0.30461975	0.13896221
0.64052549	0.80868206	0.13112396
0.62632101	0.05632878	0.62608745
0.6513662	0.55487279	0.626095
0.11764039	0.31146579	0.64379164
0.11257068	0.82603253	0.64213253
0.12683369	0.0528354	0.11772065
0.14834906	0.55786287	0.13302641
0.63418683	0.3054275	0.13902465
0.63531983	0.80517149	0.13343184
0.64049434	0.05609492	0.62238203
0.65394584	0.56159751	0.63323092
0.12674589	0.31393008	0.64160945
0.11757425	0.82300842	0.63116055
0.11482416	0.05020768	0.10719487
0.15375368	0.56148474	0.13267221
0.63004593	0.3087631	0.14588488
0.62030417	0.80763208	0.14371918
0.63721885	0.06125222	0.62847737
0.64891642	0.56401177	0.63933006
0.13024357	0.31394668	0.6361601
0.12067771	0.8145202	0.63080783
0.11098716	0.05340968	0.10895527
0.14580326	0.55768179	0.13875357
0.6234792	0.30894886	0.15199079
0.6129741	0.8066951	0.14174351
0.61685056	0.06421493	0.63680303
0.63727664	0.56269115	0.63647997
0.12824388	0.31146927	0.62865429
0.120505	0.8121614	0.64586156
0.12032624	0.05892022	0.11972642
0.13819216	0.55436244	0.14487683
0.6178561	0.30373721	0.15219949
0.62880888	0.80025082	0.12997833
0.60992219	0.06165773	0.63428164
0.62964951	0.56435016	0.62857466
0.12787277	0.31257906	0.62577131
0.12179522	0.81777619	0.65450402
0.13208095	0.06029509	0.13318495
0.14089303	0.5600099	0.13981179
0.61644434	0.30028228	0.14663203
0.64109385	0.79764138	0.1168418
0.62943333	0.06151659	0.62692585
0.63578435	0.57017339	0.63276393
0.13134922	0.31610172	0.62829704
0.12531549	0.81937494	0.64102556
0.13282686	0.05797833	0.13072376
0.14600651	0.5645729	0.13277552
0.61855191	0.30108272	0.14138871
0.633265	0.80203092	0.11938898
0.6445528	0.06607133	0.62786664
0.6440068	0.57126675	0.64668085
0.13439777	0.31678596	0.63209018
0.12971071	0.81351758	0.62297434
0.12660716	0.05724762	0.11499362
0.14206578	0.55890951	0.13024982
0.6215576	0.30018394	0.14337461
0.62702973	0.80551029	0.13693185
0.63432058	0.06874322	0.63440542
0.64016913	0.56456097	0.65742812
0.1364082	0.31393014	0.63182996
0.13268013	0.80695726	0.62100595
0.12914431	0.06102822	0.11130839
0.1316129	0.55741656	0.12861729
0.62303254	0.29395803	0.15112389
0.6395604	0.80112697	0.14850039
0.62379036	0.06599998	0.63442272
0.62630537	0.55851022	0.65772969
0.13768898	0.31334856	0.6310346
0.13277733	0.80729513	0.64356577
0.14015658	0.06517081	0.12698632
0.1276927	0.56488181	0.12748386
0.62605657	0.29358095	0.15129399
0.65595206	0.79528999	0.14042804
0.6286182	0.06343471	0.62741299
0.61851223	0.55847968	0.6593314
0.13814685	0.32136134	0.63143828
0.12695056	0.81134547	0.65893909
0.14388667	0.06468687	0.12957462
0.13702217	0.57415178	0.13191634
0.62570433	0.3003603	0.14296682
0.65403763	0.7960637	0.12922487
0.63858298	0.06468715	0.62578716
0.62349614	0.56178229	0.6669256
0.14054239	0.32782303	0.62879351
0.12473363	0.81183138	0.64574004
0.13024275	0.06372583	0.11854542
0.13391514	0.57877781	0.1389484
0.62053596	0.30558172	0.14792869
0.63415725	0.80165677	0.12942311
0.63953458	0.06601552	0.63373132
0.63206624	0.56449239	0.66904366
0.13869582	0.32341498	0.62551806
0.12443103	0.80952789	0.62006919
0.11398878	0.06852362	0.11124949
0.11806136	0.57604465	0.14230998
0.62577523	0.30052144	0.15978117
0.62571346	0.80349721	0.13915727
0.63532563	0.06411949	0.64493641
0.62937181	0.5670766	0.65676882
0.12495485	0.32100097	0.62302704
0.12169977	0.81198257	0.60842495
0.10961725	0.07335133	0.11663426
0.10950675	0.56886067	0.14325062
0.63572571	0.29486273	0.16217068
0.64104804	0.79892418	0.14695034
0.63786776	0.05937309	0.65145374
0.61788317	0.56689069	0.64480608
0.11578202	0.32282109	0.62371987
0.12901734	0.82016581	0.61209285
0.11597935	0.07527084	0.12583942
0.11717151	0.56450742	0.14538086
0.6346976	0.2956873	0.15271628
0.65029496	0.79508565	0.14193186
0.64856556	0.0538336	0.64904699
0.6156962	0.56272864	0.64324042
0.12219707	0.32392231	0.62693702
0.13367161	0.82513857	0.61554959
0.11891865	0.07305674	0.12303419
0.1230657	0.56806101	0.14644163
0.62406634	0.30781309	0.1395995
0.62882942	0.79844993	0.13397068
0.65549111	0.052447	0.64299956
0.62267685	0.55849524	0.64799114
0.12710428	0.31982913	0.62208929
0.13016297	0.82465269	0.60695018
0.11668511	0.07144196	0.10997391
0.11393164	0.57290828	0.13727814
0.61957638	0.31990815	0.13155871
0.61224198	0.80594159	0.14019992
0.64910626	0.06008404	0.64148697
0.62453967	0.55551149	0.64296864
0.12219184	0.31499359	0.61395582
0.12459032	0.82279468	0.60279978
0.11117493	0.07230109	0.10349428
0.10088521	0.56979407	0.11906298
0.6265362	0.3170645	0.12920384
0.61913543	0.80793672	0.14674317
0.6328308	0.06623575	0.64278925
0.6132427	0.55361884	0.63036941
0.11743953	0.31772124	0.61613308
0.12564329	0.8213289	0.60994888
0.10774953	0.07350054	0.10691129
0.10018945	0.56751857	0.11339478
0.6266849	0.3075087	0.12938437
0.62926447	0.80653381	0.14417356
0.62233502	0.05900279	0.63861195
0.59963579	0.55071895	0.62805619
0.12196664	0.32375578	0.62782213
0.13414137	0.82057764	0.61811473
0.1083258	0.07319715	0.11148198
0.10537912	0.5717052	0.12269264
0.61917192	0.30832009	0.12875061
0.6244906	0.80929673	0.12782972
0.62153565	0.05076616	0.62463981
0.5999487	0.54849489	0.6316877
0.13133781	0.32301107	0.63454046
0.139751	0.82206203	0.6165212
0.11495825	0.07249772	0.11152549
0.1127885	0.57595157	0.12581053
0.61130725	0.3147279	0.12962049
0.60799516	0.81317015	0.11164825
0.6248764	0.05258109	0.60705685
0.61193874	0.55055088	0.63049508
0.12969201	0.31916232	0.62944717
0.13547991	0.82458188	0.60646208
0.11401885	0.07416309	0.1107223
0.1181445	0.57445401	0.11554638
0.60562834	0.3137897	0.13244022
0.59611789	0.81252266	0.10996895
0.62520118	0.05655291	0.60636074
0.61951599	0.55343569	0.62349501
0.11337007	0.31979264	0.62007262
0.12814851	0.82579065	0.59617094
0.09834016	0.07630616	0.1165829
0.11783742	0.56817917	0.1068145
0.60610372	0.30726848	0.13124479
0.60335375	0.81005851	0.11716915
0.61976701	0.05519495	0.62223517
0.61390255	0.5503024	0.61365505
0.10080805	0.3242271	0.61657994
0.12592467	0.82461671	0.59341908
0.09818058	0.07468004	0.12638479
0.11285793	0.56423592	0.10795969
0.60849002	0.30369614	0.12293641
0.61928163	0.81137668	0.11457067
0.61256997	0.05371152	0.63312834
0.60518758	0.54643999	0.61025249
0.10624947	0.32558913	0.61776816
0.12702236	0.82061137	0.60281231
0.11315446	0.06881333	0.13073965
0.10798423	0.56755236	0.11283468
0.60993651	0.30663884	0.11327623
0.61731384	0.81629172	0.10264076
0.60558843	0.05562849	0.62393654
0.60767135	0.54837459	0.61902487
0.11780272	0.32016664	0.61412733
0.12042371	0.81956048	0.61425852
0.12474052	0.06199214	0.13404593
0.10937853	0.569349	0.11269256
0.61248948	0.31005982	0.11033694
0.60634847	0.81834856	0.10030068
0.60214371	0.05580322	0.61013687
0.61916025	0.55470812	0.63242888
0.11587191	0.31315618	0.60621615
0.1114919	0.8207618	0.61760173
0.12447959	0.05874949	0.14067219
0.11345155	0.56579655	0.10609119
0.61743076	0.30885949	0.11477342
0.61178255	0.8177716	0.10701418
0.60044154	0.05130846	0.60955266
0.623425	0.55929648	0.63082795
0.10923673	0.31378535	0.60463152
0.10975193	0.81780674	0.61457154
0.12217443	0.05816972	0.14534864
0.11273248	0.56119648	0.10222393
0.61697207	0.30263498	0.11643973
0.62738841	0.8162969	0.1079308
0.59741857	0.04926401	0.62048711
0.61396995	0.56025787	0.61163702
0.10740003	0.31497963	0.61480752
0.11016274	0.8107682	0.617258
0.12305366	0.05809788	0.14306034
0.10716328	0.56184433	0.1081514
0.60741788	0.30077919	0.11396957
0.63432763	0.81394002	0.10438462
0.59378433	0.05218595	0.61941804
0.60678775	0.56032632	0.5990893
0.10575551	0.31099866	0.62655515
0.1123742	0.80793003	0.62740341
0.12329873	0.05846396	0.1373367
0.11120112	0.56623703	0.11871989
0.60226096	0.30636049	0.1123494
0.63315106	0.81095489	0.10713025
0.5965701	0.05565959	0.60591867
0.61407226	0.56109714	0.60432133
0.09741576	0.30732094	0.62711915
0.11658169	0.81215346	0.63734441
0.12116546	0.05874594	0.13528884
0.11545893	0.57001992	0.11635234
0.60343348	0.30972592	0.11512481
0.63027152	0.80969655	0.11625586
0.60618789	0.05739312	0.60584367
0.62258796	0.56149376	0.60730373
0.09223939	0.30702716	0.61779113
0.11885042	0.81720069	0.63090507
0.12015109	0.0599243	0.1402208
0.11012286	0.56990985	0.10597228
0.60466562	0.30720886	0.11859513
0.62715502	0.81018923	0.1213939
0.61381293	0.05844874	0.62794244
0.62248347	0.56132849	0.59735755
0.09723487	0.31012878	0.61130632
0.1201032	0.81454593	0.6198776
0.12363398	0.0624005	0.14084904
0.10879601	0.56526577	0.1016326
0.6026171	0.30635295	0.11804438
0.62495449	0.80902426	0.11682472
0.61691644	0.05963003	0.64520276
0.62081956	0.56099048	0.59346886
0.10343947	0.31384258	0.61602085
0.11869642	0.80628786	0.62186034
0.1279163	0.06388072	0.12825207
0.11158165	0.56122058	0.10648481
0.60338438	0.31112459	0.11549588
0.62593125	0.80688202	0.10883991
0.61925201	0.06042883	0.63897788
0.62177132	0.55720147	0.60135863
0.10548151	0.31400027	0.62384244
0.1163458	0.8018008	0.62993931
0.12435247	0.06305739	0.12011871
0.11521151	0.56274093	0.11246812
0.60902261	0.31803246	0.1138167
0.6231876	0.80640203	0.10730115
0.61969568	0.06056082	0.61335791
0.62691223	0.55595028	0.60812803
0.10395591	0.31071409	0.62431514
0.11786921	0.80531447	0.62902049
0.11600532	0.06126157	0.12728577
0.11963159	0.56563913	0.11222383
0.61558695	0.32112656	0.1088885
0.61825373	0.8067524	0.110109
0.61856228	0.06070472	0.60208084
0.63443147	0.56096605	0.60779991
0.10248611	0.30772882	0.6157674
0.1263873	0.81137993	0.62373122
0.1168277	0.06048316	0.1325715
0.12379094	0.56461653	0.10986337
0.61793588	0.31759321	0.10662274
0.61493773	0.80645615	0.11028795
0.61573218	0.06200252	0.62114705
0.63595387	0.5639522	0.60076235
0.10466589	0.30745082	0.61461352
0.13339482	0.80987762	0.62043902
0.12077751	0.06351146	0.12282582
0.1234093	0.56078269	0.11415746
0.615121	0.31532045	0.10663644
0.60988452	0.80667751	0.11027992
0.61739477	0.06536853	0.64227091
0.62606157	0.55999266	0.59388504
0.11137763	0.31117873	0.6234275
0.13088849	0.80566611	0.62030628
0.11501513	0.06752925	0.11786952
0.12229808	0.56029562	0.12269283
0.61276167	0.3202682	0.10228612
0.6029542	0.80915576	0.11395063
0.61606952	0.06793231	0.63844617
0.61263502	0.55743262	0.59044797
0.11701038	0.31566456	0.62667708
0.12411279	0.81004818	0.62879972
0.1075479	0.07027887	0.12514307
0.12056896	0.56496731	0.12440326
0.61577721	0.31972198	0.09562947
0.60207088	0.81358375	0.11961273
0.60839535	0.0687779	0.63086402
0.61510854	0.56030745	0.59240351
0.11811885	0.31615629	0.62301759
0.1259667	0.81934563	0.62901392
0.1132579	0.07224306	0.13117848
0.1239189	0.56700736	0.11764452
0.6170783	0.31327985	0.09080401
0.60934121	0.8173552	0.12342462
0.60901855	0.06721977	0.63762802
0.61878578	0.56518213	0.60555002
0.11721036	0.31475262	0.62462935
0.13557492	0.81878256	0.61381872
0.11880563	0.07247371	0.12832405
0.12678895	0.56355736	0.11214044
0.61370991	0.31176519	0.09421219
0.61385467	0.81787112	0.12285702
0.62315599	0.06483155	0.65104894
0.61041261	0.56627427	0.61961971
0.11965795	0.31610403	0.63046965
0.13905703	0.81384118	0.60347207
0.11538252	0.07142383	0.12030422
0.12466939	0.56177127	0.11522702
0.61540956	0.31659534	0.10973895
0.61516167	0.81619622	0.11874416
0.63063929	0.06270374	0.65207263
0.60251345	0.5624603	0.62115047
0.12695376	0.31911267	0.63114241
0.13412537	0.81588538	0.60442835
0.10868183	0.06938823	0.11768656
0.11916025	0.56446356	0.12388838
0.62528272	0.32079374	0.1272973
0.61702573	0.81475354	0.11500025
0.62347737	0.0613691	0.63597659
0.6062118	0.56159241	0.62085136
0.13253823	0.31901884	0.62218318
0.1276703	0.82309375	0.61037041
0.10502997	0.06671599	0.12924573
0.11741125	0.56787517	0.13090759
0.62651342	0.31940768	0.13008565
0.61857588	0.81417254	0.11374144
0.6145806	0.06022447	0.61978219
0.62055623	0.56861364	0.62712488
0.13243261	0.31535834	0.61207953
0.12494044	0.82795284	0.62351881
0.10273985	0.06458875	0.14182503
0.11687412	0.57057962	0.13130256
0.62321423	0.31500535	0.11879925
0.61741907	0.81522924	0.11515726
0.61272419	0.06147024	0.61276079
0.63624459	0.57482691	0.62200725
0.13278374	0.31218254	0.61249432
0.12256168	0.82543735	0.63631864
0.0988386	0.06765238	0.13296242
0.11352852	0.57276336	0.1288194
0.63270956	0.31194602	0.11513103
0.61435696	0.8202629	0.11653499
0.62261877	0.06485874	0.61269649
0.64350529	0.57427148	0.60213647
0.13822404	0.31191932	0.62213279
0.11510686	0.8208143	0.63979525
0.10059034	0.07404875	0.12298616
0.10736186	0.57576187	0.13082568
0.64065806	0.31175554	0.12851055
0.61934618	0.82254242	0.11461506
0.63784373	0.06580881	0.61377234
0.64300981	0.56929715	0.60296809
0.14359951	0.31533897	0.62729921
0.11093538	0.82396362	0.63505301
0.111364	0.07416394	0.1276573
0.10441412	0.57791555	0.13520562
0.63380043	0.31117021	0.13406787
0.62815459	0.8194222	0.11161036
0.6462954	0.06514805	0.60819339
0.64032491	0.56862641	0.61848306
0.14477582	0.32045541	0.62832847
0.11839358	0.82784845	0.62970561
0.12219619	0.0693673	0.13061022
0.10476805	0.57555707	0.13598708
0.62241377	0.31125673	0.12252244
0.634578	0.81706873	0.11373191
0.64462258	0.06554805	0.59768721
0.64056612	0.57088887	0.61972774
0.13905084	0.32021782	0.62602063
0.12800734	0.82514481	0.63091393
0.12006527	0.06752485	0.12089458
0.10609357	0.57105539	0.12958489
0.6196473	0.31371414	0.11659674
0.63635749	0.81995292	0.1225067
0.63864568	0.06677373	0.59889321
0.64206014	0.56963196	0.61162635
0.13214259	0.31529477	0.61823829
0.12929025	0.81623866	0.62663901
0.10925988	0.0720931	0.10813299
0.10756793	0.57092087	0.12257986
0.62805785	0.31787372	0.12485711
0.63359874	0.82180237	0.13001659
0.63812374	0.06604195	0.60535654
0.63936881	0.56287246	0.61792808
0.13358401	0.31181282	0.6142438
0.12443334	0.81099798	0.61938915
0.1137543	0.07794976	0.1070981
0.11015487	0.57520317	0.11971114
0.64256607	0.31999986	0.12864011
0.62929524	0.81824727	0.12906127
0.63953108	0.06428059	0.60367158
0.62791002	0.56006109	0.63156907
0.14167029	0.31519119	0.61875423
0.1241794	0.81550415	0.61669636
0.13121477	0.07827499	0.11569622
0.11481202	0.57764538	0.12232445
0.65200653	0.31750305	0.11972742
0.62640069	0.81281688	0.12328447
0.63883989	0.06578593	0.60481835
0.6125871	0.5631061	0.63554683
0.1481449	0.32221718	0.63022332
0.12753538	0.82204909	0.61529067
0.14054903	0.07364828	0.11854765
0.12476124	0.57535539	0.13101639
0.64958506	0.31334395	0.11291909
0.62492359	0.81375946	0.12667876
0.63382227	0.0681534	0.60956395
0.6141297	0.56416923	0.62865661
0.14448248	0.32212182	0.64133689
0.12975465	0.82020968	0.61767761
0.14001448	0.07161367	0.10709407
0.1340629	0.57421696	0.13977357
0.64158234	0.31134219	0.11732906
0.62365426	0.81678159	0.14058096
0.6314873	0.06713952	0.60960933
0.6198219	0.5597652	0.62426793
0.13522315	0.31696274	0.63768839
0.12849872	0.81356218	0.62718669
0.14110564	0.07448641	0.09899076
0.14079662	0.573326	0.13942371
0.63488634	0.31156952	0.12350162
0.6247052	0.81547797	0.14720631
0.63844659	0.06454953	0.60645957
0.61139222	0.5566561	0.63269045
0.12851103	0.32071694	0.62923518
0.12667743	0.81393872	0.63129263
0.14960254	0.07622126	0.10995577
0.1465749	0.57244136	0.13281973
0.63536675	0.31004861	0.12361869
0.63282715	0.81005878	0.13688038
0.64853351	0.06296945	0.60512867
0.60458618	0.55946604	0.64848525
0.12981545	0.32807881	0.62971227
0.12733253	0.82015256	0.62224753
0.15684591	0.06818707	0.12659655
0.14871867	0.57103343	0.12600104
0.63641114	0.31171114	0.12077218
0.63615069	0.80551903	0.11975879
0.64670763	0.06145787	0.60924012
0.61675761	0.56321404	0.65531255
0.13068942	0.32521654	0.63933167
0.12515378	0.8199439	0.61390507
0.14813549	0.0586179	0.13284178
0.14873709	0.56950255	0.12315042
0.63728376	0.31595108	0.12517653
0.62862086	0.80707998	0.11337398
0.63809925	0.05840202	0.61627368
0.63312314	0.56211591	0.65046426
0.12568423	0.31663316	0.643131
0.11868445	0.81289781	0.61574717
0.13639307	0.05637197	0.12499504
0.1442456	0.56828145	0.12651121
0.63757669	0.31458645	0.13651029
0.62730913	0.8155806	0.12526272
0.63681596	0.05740557	0.62298336
0.63732736	0.55959014	0.6423054
0.12336859	0.31549519	0.63045381
0.11587878	0.80902511	0.62437362
0.13561816	0.05867466	0.11465283
0.14071505	0.56648579	0.12977996
0.63604415	0.31110571	0.14519505
0.63748777	0.81781636	0.13730265
0.63730651	0.05998647	0.63040073
0.63032933	0.56164765	0.64454058
0.13028636	0.32046286	0.62719044
0.11819722	0.81664654	0.6325298
0.14155802	0.05863594	0.11480017
0.14667138	0.56276968	0.1323517
0.63442551	0.31208698	0.14001627
0.64005163	0.81431914	0.12794435
0.6327184	0.06419013	0.63597733
0.62861612	0.56673404	0.65232969
0.13998214	0.32408584	0.64294936
0.11323648	0.82148022	0.6378625
0.14300677	0.05619282	0.12157496
0.14871552	0.55818584	0.1364776
0.63151653	0.31449102	0.13088688
0.63120578	0.81192985	0.10925189
0.62659454	0.06508194	0.63450382
0.64000701	0.56716611	0.65372839
0.14378218	0.3205294	0.64726775
0.1001487	0.81932856	0.64511543
0.13753811	0.05577584	0.12403864
0.14005433	0.55710228	0.13910493
0.62435003	0.31398614	0.1294856
0.62395983	0.81440865	0.11200653
0.62603282	0.06353327	0.62784219
0.64777841	0.56499791	0.64363254
0.14084229	0.31564823	0.63049584
0.09259984	0.82173733	0.64558146
0.13049741	0.06045914	0.12015712
0.13117525	0.55930488	0.13856996
0.62860827	0.31289869	0.13321221
0.62415825	0.81737994	0.13714893
0.62806949	0.06597814	0.62839417
0.64170109	0.56675783	0.63346374
0.13389395	0.31553021	0.61502704
0.10875583	0.82607139	0.63445269
0.1298205	0.06189881	0.11927484
0.13575883	0.56005709	0.13515826
0.63735441	0.31463349	0.14153541
0.6266593	0.81647756	0.14062429
0.62596412	0.07060924	0.63498483
0.63582452	0.56934876	0.64064487
0.13368866	0.31830174	0.61634379
0.12487946	0.82038756	0.62374793
0.13223128	0.05657094	0.12782823
0.14084329	0.55901062	0.13001645
0.63850111	0.3184545	0.14607759
0.62261628	0.81171696	0.12662565
0.61948323	0.06958299	0.63558403
0.64054987	0.57074414	0.65228777
0.14003458	0.31917072	0.62432864
0.11576724	0.80991193	0.62323847
0.12938551	0.0567595	0.13599531
0.13151892	0.55922726	0.12645191
0.63558237	0.32015529	0.14264867
0.61006148	0.80919924	0.1272795
0.61890428	0.06586529	0.63467638
0.64983786	0.57166782	0.65124483
0.14183585	0.31625538	0.61995397
0.10698681	0.80788298	0.63201514
0.11908535	0.06443087	0.1278994
0.11902472	0.5608364	0.12681365
0.63642669	0.3166889	0.13893926
0.59882554	0.81314379	0.1435934
0.62410012	0.06568347	0.63578052
0.65324856	0.57204018	0.63976093
0.13314033	0.31380382	0.61010776
0.12174546	0.81196675	0.6370008
0.11099009	0.07073868	0.11502898
0.12131533	0.56240651	0.12663573
0.64572274	0.31325482	0.13924542
0.60227117	0.81620463	0.15429157
0.62733362	0.07253843	0.64011298
0.64878656	0.57269627	0.63124379
0.12804544	0.31476915	0.6155809
0.14651831	0.81455239	0.63010681
0.11172863	0.07225102	0.12127152
0.12747958	0.56271843	0.12318326
0.65394011	0.31318451	0.13900603
0.61208349	0.81124355	0.15331697
0.62494961	0.08107438	0.64469835
0.64253073	0.57319163	0.63059955
0.13411083	0.31648515	0.63291401
0.15331085	0.81471528	0.61569356
0.11788955	0.07025176	0.13369172
0.12024353	0.5659389	0.12401368
0.64886231	0.31458641	0.13679164
0.61612675	0.80858902	0.14733331
0.62542432	0.08386588	0.64205421
0.63851876	0.57102007	0.63181635
0.14615635	0.31824372	0.63956532
0.13843982	0.81648709	0.61270265
0.12221832	0.06811713	0.13444415
0.10916132	0.568774	0.12916524
0.6379058	0.31362703	0.13268442
0.61539012	0.8108917	0.14948896
0.63273052	0.07478087	0.63222605
0.63385794	0.56778642	0.627169
0.14944066	0.31873482	0.62881189
0.12721287	0.82074204	0.62887159
0.11901164	0.06788466	0.1285927
0.11452561	0.56995719	0.13010327
0.63546727	0.31092964	0.12880526
0.61740022	0.81445136	0.15466346
0.62822307	0.0624296	0.62888868
0.62559908	0.56647591	0.61662461
0.14062597	0.31685006	0.61579947
0.13735961	0.82153687	0.63793543
0.1156205	0.06937579	0.12755541
0.12670013	0.57118916	0.12083092
0.64104653	0.31272289	0.13169946
0.62335979	0.81457829	0.14745665
0.61367971	0.06146421	0.64051852
0.62206763	0.56559655	0.60816605
0.12886156	0.3137442	0.62107644
0.15342455	0.81617903	0.62495527
0.1203911	0.06988303	0.13457546
0.12901806	0.57101823	0.10859494
0.64130846	0.31867361	0.13726332
0.62354272	0.81108207	0.12892408
0.61352541	0.06732595	0.64819361
0.62216295	0.5602644	0.61051598
0.12650721	0.31175	0.62803278
0.15390881	0.81147402	0.61070939
0.12451222	0.06870603	0.13740292
0.12748066	0.56879892	0.11170281
0.62723776	0.32027049	0.13677733
0.61743012	0.80976599	0.12067542
0.62498262	0.06486189	0.64122297
0.6143813	0.5549547	0.62054564
0.13450651	0.31415452	0.6237619
0.14078069	0.81626605	0.6149143
0.12058539	0.07043226	0.12557986
0.12696663	0.56550034	0.12069907
0.61270472	0.31670299	0.12659613
0.61675163	0.8130842	0.13200686
0.63275702	0.05154054	0.63005603
0.60476359	0.5567743	0.62134875
0.13996785	0.321691	0.62233633
0.12920813	0.82474799	0.63001116
0.11517563	0.0734392	0.11475102
0.12686118	0.565931	0.11915545
0.62125285	0.31049588	0.11841961
0.62565735	0.81729233	0.14218741
0.62695286	0.04366407	0.62560235
0.60591753	0.5635948	0.61038864
0.1308167	0.32571207	0.6251293
0.13364522	0.82390291	0.63684574
0.11852319	0.07213334	0.11634197
0.1243385	0.5713463	0.1125064
0.62089786	0.30455625	0.12081685
0.62838639	0.81769991	0.12853292
0.61802991	0.05160558	0.63317343
0.62169176	0.56530128	0.61319181
0.11395806	0.32275922	0.62097086
0.14418826	0.82000591	0.61954171
0.12649438	0.06794019	0.12598081
0.12066084	0.57881894	0.11260925
0.61265744	0.30295525	0.12690368
0.62432055	0.81369423	0.10951628
0.61905223	0.06228264	0.64446665
0.63738501	0.55968832	0.62696253
0.11170964	0.31866071	0.60738049
0.13543668	0.8223694	0.60091969
0.1264041	0.06879399	0.13175078
0.1212954	0.58432215	0.12058618
0.61339552	0.30687601	0.12081934
0.62244178	0.81023512	0.11024662
0.6231387	0.05688937	0.6423452
0.63138064	0.55389022	0.62996647
0.12345817	0.32116406	0.6063764
0.11490581	0.82796003	0.60507484
0.12068298	0.07326141	0.12392409
0.12372607	0.58276808	0.12249266
0.61584829	0.31238996	0.11075725
0.62912943	0.80989499	0.12139554
0.62076219	0.04656388	0.63132839
0.62130371	0.55870721	0.62548553
0.12820711	0.32593297	0.61665262
0.10987788	0.82810508	0.61900371
0.12100811	0.07663787	0.11293101
0.12085391	0.57590491	0.11076361
0.61736077	0.31038058	0.11157202
0.63442806	0.81078417	0.11701847
0.61406036	0.04585125	0.63359221
0.62322158	0.56783529	0.62061364
0.1106828	0.322977	0.6246136
0.12663084	0.82164174	0.61772356
0.13145639	0.07829614	0.1156815
0.11442936	0.57455227	0.10611936
0.61344882	0.30717443	0.12329848
0.62749811	0.8095657	0.10091567
0.61198477	0.05510269	0.63733608
0.63090239	0.56478906	0.61798995
0.09233937	0.31563502	0.62425855
0.14075942	0.81507358	0.60549764
0.13880944	0.0795815	0.13360383
0.11239655	0.57607755	0.12174168
0.60768863	0.31066997	0.12992689
0.62171897	0.80731228	0.09501514
0.61421555	0.06024938	0.62293837
0.63162059	0.55281596	0.61688599
0.09693148	0.3135486	0.61923483
0.13253337	0.81797539	0.60252425
0.13176066	0.07980489	0.13932845
0.11728835	0.57024224	0.13716394
0.61084235	0.31552828	0.12412255
0.6303112	0.80915811	0.105764
0.61415273	0.05266783	0.60469783
0.62591856	0.54711675	0.61220211
0.10555462	0.31935654	0.61250314
0.11671086	0.82473549	0.61757718
0.13070583	0.07714398	0.12254496
0.12039078	0.56762438	0.14074291
0.61726028	0.3137928	0.11065092
0.64186345	0.81449336	0.11481613
0.60868568	0.04845982	0.60101069
0.621258	0.55295412	0.60693955
0.09712853	0.3235708	0.6112588
0.12067835	0.82272766	0.63373171
0.13447971	0.07204059	0.11446905
0.11841092	0.57111042	0.13684494
0.61540843	0.30753929	0.10762578
0.6380862	0.8154017	0.10664518
0.60567158	0.05857611	0.60776536
0.61359434	0.55995742	0.61229382
0.08270266	0.32050484	0.61507961
0.12962432	0.81350484	0.62381812
0.12657363	0.06696638	0.13172981
0.12297042	0.57357323	0.13014516
0.60811091	0.30356432	0.11819774
0.62508386	0.81067962	0.09112771
0.60785217	0.06718735	0.61842943
0.60790363	0.55672423	0.62204951
0.07931692	0.31632481	0.61842188
0.12814905	0.81044081	0.60417827
0.11910854	0.06525053	0.14252226
0.12803441	0.5715729	0.12546517
0.60551401	0.30822834	0.12083917
0.62210097	0.80822461	0.08817997
0.60782595	0.06379143	0.61960671
0.60896421	0.55048327	0.62302292
0.09502088	0.31410183	0.6162036
0.12022865	0.81587639	0.61124037
0.11982983	0.06697462	0.12817868
0.12747529	0.56771412	0.12405169
0.60798829	0.31345342	0.10353399
0.63026608	0.80945128	0.10133032
0.60321823	0.05630377	0.61116572
0.61321067	0.55418204	0.61461576
0.10639585	0.31142494	0.61940694
0.11291146	0.81731483	0.62850393
0.12097004	0.06690188	0.11158738
0.12262169	0.56766816	0.12200689
0.6086375	0.31243669	0.08580263
0.63084426	0.8096538	0.11800561
0.60055428	0.0529939	0.61273987
0.61009104	0.56476186	0.61170636
0.10316683	0.30808047	0.6330528
0.11524787	0.81009575	0.63060274
0.11970876	0.06407978	0.11386709
0.11654253	0.56883806	0.1213751
0.60624523	0.31189006	0.08402838
0.62425294	0.80869896	0.12231535
0.60323011	0.05692761	0.63195127
0.59824347	0.5653624	0.6151769
0.09306198	0.30782413	0.64716538
0.12590026	0.80473876	0.62391746
0.11749895	0.06197716	0.1288656
0.11233564	0.56487868	0.12449382
0.60266021	0.31397926	0.09256993
0.62186686	0.80858718	0.11210687
0.61241853	0.0641218	0.64501875
0.60032325	0.55535164	0.61765975
0.093812	0.31134199	0.64960128
0.13347348	0.80782047	0.62270723
0.11408135	0.06314019	0.13607021
0.11045294	0.55842547	0.12446611
0.60159831	0.31467919	0.10062306
0.62804588	0.80871784	0.10610883
0.62265601	0.06560981	0.63802916
0.61223286	0.54911319	0.61724638
0.10702772	0.31291594	0.63244269
0.12794765	0.81562736	0.63281346
0.11067697	0.06524349	0.12523883
0.10920224	0.5569669	0.12234439
0.60361056	0.31115399	0.10476276
0.63671678	0.8084373	0.11490027
0.62204145	0.06103913	0.6190048
0.61649064	0.55455919	0.61551071
0.11967762	0.31484849	0.62479518
0.12441272	0.81977399	0.63903919
0.10528624	0.0641027	0.10780405
0.1083463	0.56011212	0.1247181
0.60434489	0.30430155	0.10371777
0.64095201	0.80929923	0.13245295
0.6123999	0.05750803	0.6048411
0.60899733	0.56009733	0.61837155
0.11972279	0.32002961	0.63179375
0.1287577	0.81851961	0.63037563
0.09992241	0.06050077	0.11127465
0.10802056	0.56146848	0.12809885
0.60459537	0.30265227	0.10304295
0.63538749	0.80894905	0.13069817
0.61111499	0.06072944	0.60416594
0.59652527	0.55880364	0.62404625
0.10857331	0.32305321	0.6303411
0.12594918	0.81701398	0.61459339
0.09607527	0.06059982	0.12733813
0.11018348	0.55830634	0.12631839
0.60789462	0.30813059	0.11011517
0.62626783	0.80801622	0.11550339
0.62417326	0.06594411	0.61160379
0.59358789	0.55648508	0.62738033
0.10604908	0.31989841	0.61890898
0.11186416	0.81743027	0.60569808
0.09895841	0.06384032	0.1237277
0.1114344	0.55713099	0.12240934
0.61094653	0.3109807	0.12439039
0.6201184	0.80704864	0.11832016
0.6308894	0.06377839	0.62035055
0.6055152	0.56003323	0.62379405
0.11616852	0.31132248	0.61329302
0.10043531	0.81628655	0.60834172
0.10607506	0.06562962	0.10343096
0.10647817	0.56108408	0.1233646
0.61161578	0.30846118	0.13469765
0.61564872	0.80734325	0.13544281
0.62473359	0.05429008	0.62126196
0.61812365	0.56636518	0.61563758
0.12331361	0.30941884	0.61394443
0.0988434	0.81348574	0.61062874
0.11104967	0.06338292	0.10272249
0.10102309	0.56754677	0.13199243
0.61186028	0.30741151	0.13524673
0.61388663	0.81030926	0.13886995
0.62463822	0.05035771	0.62062248
0.61314294	0.569024	0.61388342
0.11713087	0.31704092	0.61528743
0.10838373	0.81178043	0.6119512
0.10988923	0.06124258	0.11947318
0.10387704	0.57097228	0.13815525
0.61119535	0.30987197	0.13393327
0.61498292	0.81436531	0.12357804
0.63617085	0.06266147	0.62308271
0.59865459	0.56440665	0.62565406
0.10789507	0.32178163	0.61582661
0.11786217	0.81018595	0.62117025
0.1048856	0.06708282	0.1324038
0.11065453	0.56987192	0.13512213
0.61247977	0.31241444	0.14629744
0.61471911	0.81323267	0.10748196
0.64451321	0.07151537	0.62884542
0.6023793	0.55788672	0.63569593
0.10716655	0.31889648	0.61552709
0.11314607	0.8094026	0.62960268
0.10640228	0.07342561	0.13006477
0.1137923	0.56714869	0.12947131
0.61645835	0.31149541	0.15833259
0.60902295	0.80767445	0.10612794
0.63799474	0.06674975	0.63419978
0.61531613	0.56147246	0.62824593
0.11468395	0.31649551	0.6135913
0.11371819	0.81045311	0.63226566
0.11387019	0.07235385	0.12170534
0.11310361	0.56911014	0.12611243
0.62568611	0.30976123	0.15353017
0.60207032	0.80699235	0.11723189
0.62193727	0.05977626	0.63015556
0.61720372	0.57108688	0.6182001
0.12210771	0.3179224	0.61536364
0.12312326	0.81277693	0.63271985
0.11689369	0.06785957	0.1229693
0.11419749	0.57451425	0.12643374
0.63934641	0.31237075	0.14362554
0.60530244	0.81190009	0.12210677
0.6177438	0.05948303	0.6222439
0.60691471	0.57083932	0.62350008
0.12234323	0.32002665	0.62210244
0.12601257	0.81461032	0.63292556
0.11296066	0.06772722	0.13334924
0.1206962	0.57325545	0.12423845
0.6466497	0.31631579	0.1411384
0.61609879	0.81472328	0.11904731
0.62786822	0.06462407	0.62455017
0.59763693	0.56115347	0.6310368
0.12217153	0.31764134	0.62592438
0.12008046	0.81488275	0.63318991
0.11760923	0.07092511	0.14082801
0.12888998	0.57246515	0.11736504
0.6414997	0.3189803	0.1476418
0.61487987	0.81216982	0.1184815
0.63875931	0.06882635	0.63562811
0.60514525	0.55990076	0.62732662
0.12722104	0.31163415	0.62293952
0.11248382	0.8165816	0.63064098
0.13350936	0.07233872	0.13791776
0.13194739	0.57566762	0.11799563
0.62700479	0.32028194	0.14491121
0.60363559	0.80951312	0.12638779
0.63964803	0.06603501	0.63912615
0.62512921	0.56985009	0.61886553
0.13370027	0.31113549	0.62030189
0.11057417	0.82088455	0.62538231
0.14580816	0.06904762	0.13264426
0.12845326	0.57697242	0.12309512
0.61695702	0.32013639	0.13374566
0.59912495	0.8117967	0.12996864
0.63513817	0.05890685	0.63117483
0.63463848	0.57785872	0.61718597
0.13162569	0.31736348	0.62816712
0.11825169	0.82505552	0.61951599
0.14627069	0.06742517	0.13695033
0.12615105	0.57248645	0.12355088
0.61686305	0.3185915	0.12409945
0.61103148	0.817234	0.12692605
0.63482258	0.06162439	0.62730686
0.62991221	0.57182643	0.62787397
0.13257966	0.32355141	0.64238591
0.12294872	0.82870621	0.61939233
0.14006792	0.07089987	0.14855589
0.13051595	0.56457791	0.11810779
0.61669888	0.318082	0.12106019
0.62303671	0.81805428	0.12140889
0.63665377	0.07373609	0.63325185
0.63046686	0.56386089	0.64224454
0.1380296	0.32338106	0.64358739
0.11741109	0.83029588	0.62622038
0.1347876	0.07315084	0.15734728
0.13558947	0.55862358	0.11214013
0.61154186	0.31714925	0.12325718
0.61681848	0.81351025	0.11909601
0.62836579	0.07699142	0.63470394
0.64391469	0.56555134	0.64530443
0.14135447	0.32112235	0.63386627
0.10957605	0.82768673	0.63122586
0.13573822	0.07091337	0.15423132
0.13278714	0.55759315	0.1077671
0.61131095	0.3150094	0.12345469
0.60283411	0.81243144	0.12395689
0.61909226	0.07021244	0.62367969
0.66097063	0.57169397	0.63696766
0.14188254	0.32177024	0.63034198
0.11127497	0.8229066	0.62834948
0.13977121	0.06678436	0.14120816
0.12389557	0.55882652	0.10383802
0.62308768	0.31244021	0.12087175
0.60512611	0.82009614	0.13385617
0.62161207	0.06466988	0.61394565
0.6643828	0.57244536	0.63159853
0.14514469	0.32465203	0.63023486
0.12033407	0.82361991	0.62268686
0.13970999	0.06533215	0.13106963
0.1189404	0.56002463	0.10102429
0.63352386	0.31211675	0.11814548
0.62263585	0.82798614	0.13541797
0.63378741	0.07152046	0.62039782
0.64904949	0.56683231	0.63754681
0.15027994	0.32770268	0.62599269
0.13040147	0.82840419	0.62244771
0.13405917	0.06693883	0.12904086
0.12422791	0.56077206	0.10343605
0.63307093	0.31709796	0.11593998
0.63710254	0.82774841	0.12474534
0.64509816	0.08025444	0.63253979
0.63749898	0.56157094	0.64795309
0.14902141	0.32684429	0.62244576
0.13398792	0.82843344	0.62162809
0.12501616	0.06658832	0.12491253
0.13169114	0.56197716	0.11366059
0.62697527	0.32235525	0.11392139
0.63432213	0.8207273	0.1295927
0.64749706	0.07948916	0.62831516
0.64981136	0.56524757	0.64640628
0.1430278	0.32332178	0.6154395
0.13221032	0.82096365	0.61544829
0.11823601	0.06319119	0.11244384
0.12520649	0.56582937	0.12632749
0.62575567	0.32293274	0.11148321
0.62455907	0.81703672	0.14019051
0.63883048	0.06687198	0.61456729
0.66271565	0.56988303	0.6315938
0.1405401	0.3230405	0.6088595
0.1317146	0.81621974	0.60962123
0.11715576	0.06256969	0.09808144
0.1189294	0.56965734	0.13245656
0.63493287	0.32155937	0.11722902
0.61870735	0.82174215	0.1424176
0.62433206	0.05867007	0.60715755
0.66050981	0.56706316	0.62683016
0.13886434	0.32453128	0.61016634
0.13480719	0.81931273	0.61398862
0.122596	0.06592368	0.09305219
0.12754299	0.57181158	0.13241536
0.64791701	0.32267469	0.12007261
0.62587511	0.82550714	0.13668709
0.61901293	0.06156721	0.6127425
0.6496036	0.56232923	0.63548928
0.13868323	0.32151766	0.61429524
0.13910007	0.82241361	0.62533825
0.12875059	0.06787823	0.09552622
0.13639537	0.57014377	0.13616931
0.65374711	0.32298927	0.1122124
0.63364158	0.81886891	0.12746239
0.6254306	0.06789643	0.61752404
0.63772577	0.56198991	0.63365472
0.14066577	0.3145147	0.61290811
0.14049832	0.81895981	0.62953887
0.12949745	0.0670571	0.09630073
0.13769485	0.56710212	0.14409314
0.65349993	0.31963066	0.11066441
0.63049778	0.81153567	0.12702965
0.6234966	0.06361052	0.61995873
0.63775867	0.564982	0.62663352
0.137982	0.3100435	0.60676818
0.13048924	0.81492707	0.62150359
0.1299393	0.06627811	0.09295519
0.13638018	0.57016983	0.14815529
0.64861334	0.31781703	0.11657923
0.61621391	0.81247535	0.13460077
0.60975643	0.05859144	0.61832824
0.64516569	0.56758001	0.62635032
0.13336457	0.31234145	0.6060987
0.11680509	0.8143073	0.62302243
0.13255642	0.06909543	0.09293892
0.13813375	0.57477667	0.14508211
0.64472685	0.31820629	0.11947894
0.61457587	0.8133353	0.14101771
0.602998	0.06350071	0.61492277
0.64100451	0.56710228	0.63029838
0.12763701	0.31624318	0.61410118
0.12394018	0.81723376	0.63448271
0.13045099	0.07455984	0.09882743
0.14417677	0.57482895	0.14405341
0.64694884	0.31420711	0.11915029
0.62987214	0.81137541	0.14334714
0.61264106	0.06871981	0.61478221
0.62200947	0.56564404	0.63565494
0.12448703	0.3141943	0.62188794
0.14837055	0.81976586	0.64383168
0.12304799	0.07640075	0.10505036
0.14706907	0.57205092	0.14964748
0.65381409	0.30851681	0.11769205
0.64072756	0.81052368	0.13535719
0.62377952	0.06882825	0.61773355
0.60649989	0.56685134	0.63702487
0.1268432	0.31040444	0.62520565
0.15393207	0.81754114	0.63779063
0.11954937	0.07420178	0.10736026
0.14206135	0.57202095	0.15098817
0.6529264	0.3077378	0.12033554
0.62804402	0.81105957	0.12587405
0.61478306	0.06612945	0.62174922
0.60563347	0.57035535	0.63099928
0.13408808	0.31315457	0.62682169
0.13386093	0.81254677	0.62809113
0.12248717	0.07584341	0.11056976
0.13499585	0.57493668	0.13939873
0.63979508	0.31057027	0.12847763
0.6116316	0.81326284	0.12614378
0.59858405	0.0637491	0.6221431
0.61231394	0.57034899	0.62735873
0.14000973	0.31881574	0.63081558
0.11109363	0.81137892	0.63161649
0.12776986	0.08028648	0.12342113
0.13541329	0.57574781	0.12337561
0.63048097	0.31283234	0.13439696
0.61283312	0.8156578	0.14042883
0.60520574	0.06252395	0.62955754
0.61574538	0.56385746	0.63556445
0.14147054	0.32008022	0.63473736
0.10420758	0.8166309	0.64265447
0.13396849	0.07950474	0.1392845
0.14204983	0.57188888	0.11446587
0.63453873	0.31270548	0.13408115
0.63044102	0.81486568	0.14921255
0.62538961	0.06124432	0.64356147
0.61898557	0.55703549	0.64539664
0.13744946	0.31489952	0.63200151
0.11453314	0.82131054	0.64066
0.13853933	0.07501143	0.14562764
0.14237879	0.56667877	0.11805322
0.63596754	0.31138403	0.13285193
0.63904298	0.8116493	0.135234
0.63104416	0.05991263	0.65077172
0.624021	0.5555855	0.64297212
0.1287528	0.31274538	0.63110284
0.11612168	0.8194341	0.6284542
0.13965814	0.07187401	0.14536697
0.13580122	0.56841108	0.12747123
0.62783619	0.30927982	0.13567146
0.62701622	0.81274342	0.1235487
0.62197406	0.05770913	0.64914535
0.62427694	0.56162883	0.63514925
0.12198346	0.32075742	0.63749333
0.10251707	0.81588725	0.62211858
0.13577387	0.0708711	0.14495841
0.14155283	0.57292522	0.13130859
0.63154093	0.30942663	0.13675459
0.61737058	0.81674143	0.12677211
0.61837773	0.0567598	0.65050703
0.62608369	0.56735654	0.62912462
0.12585255	0.33173968	0.63972501
0.09929307	0.81752534	0.62751861
0.13161903	0.06952395	0.14427596
0.14784399	0.5706708	0.12820436
0.64159836	0.31047995	0.13410482
0.62314569	0.81759046	0.12177522
0.63235116	0.06073811	0.64996772
0.62948866	0.56340459	0.62385104
0.12174659	0.33321029	0.63342101
0.11085604	0.82241856	0.63125087
0.12930626	0.06654731	0.1433165
0.14424712	0.56417463	0.12379813
0.62825148	0.30806938	0.13889552
0.63140384	0.811257	0.11684994
0.64669864	0.06379288	0.63776242
0.62892576	0.55584294	0.61905317
0.1068117	0.32237687	0.63136532
0.11891406	0.82358347	0.62249753
0.12614024	0.06455254	0.13972043
0.13423374	0.5661321	0.12089659
0.61566564	0.30490885	0.14762219
0.63250627	0.80219008	0.11898035
0.64612917	0.06309738	0.63528319
0.62399986	0.55807441	0.61436869
0.09915094	0.31387132	0.63618451
0.11307676	0.82047475	0.60927178
0.12233599	0.06477056	0.13732659
0.12422434	0.57353851	0.11944596
0.62099256	0.30535242	0.14538274
0.62524387	0.80339283	0.11779701
0.63017962	0.0628086	0.64155232
0.62017732	0.5680183	0.61442083
0.10600399	0.3167066	0.63691605
0.09901184	0.81979451	0.61423402
0.12038848	0.06521329	0.1385817
0.11699521	0.5711641	0.11683082
0.62799635	0.30834231	0.13930251
0.61855061	0.81229135	0.12080035
0.61379924	0.06359529	0.64095939
0.62356442	0.5707039	0.61996587
0.11464497	0.32187179	0.62745308
0.09465517	0.82243672	0.62471358
0.12108573	0.06300028	0.14028162
0.10910014	0.56427876	0.11757395
0.62742331	0.31130452	0.14282873
0.61953019	0.81433591	0.13005577
0.60947072	0.06180703	0.63078916
0.62850072	0.56446892	0.61704745
0.11301676	0.31630243	0.61680473
0.11557575	0.82391414	0.62293422
0.12431274	0.05943842	0.13984705
0.10046719	0.56168818	0.12793532
0.62073422	0.30774225	0.1471073
0.62304504	0.8094419	0.12979372
0.61852182	0.05877374	0.62167628
0.62577444	0.56006738	0.61562824
0.10980895	0.30525498	0.61486951
0.13009768	0.82303606	0.61252153
0.12754611	0.05624641	0.1325164
0.09389983	0.56360167	0.13421993
0.61391253	0.3049498	0.14536508
0.61634725	0.80421236	0.11112365
0.63100648	0.05925782	0.62164812
0.61395493	0.56309939	0.62696801
0.10877733	0.30683625	0.62306726
0.12412472	0.8220413	0.61058314
0.12770552	0.0540022	0.12183067
0.09173799	0.56289216	0.12773875
0.60826887	0.31346288	0.14164026
0.60313595	0.80501747	0.11036756
0.63015001	0.06385381	0.62654964
0.60221109	0.56654102	0.63466329
0.10241022	0.3195796	0.63460394
0.12161121	0.82076881	0.62026338
0.12120351	0.05426153	0.11810194
0.09816242	0.55687673	0.12340064
0.60809311	0.31923922	0.13723616
0.59701256	0.80825954	0.12144354
0.62040718	0.06778802	0.62718127
0.5963562	0.56606239	0.63187522
0.10267531	0.32404723	0.64066141
0.13319951	0.81886729	0.62354386
0.10992911	0.05678885	0.11924148
0.10886541	0.55083359	0.12797893
0.60616721	0.31400348	0.13117944
0.60426653	0.80790452	0.12347108
0.62309712	0.06854106	0.62212036
0.59872782	0.56384314	0.63314828
0.10918472	0.31671116	0.63832745
0.14425738	0.8165903	0.61237734
0.1082039	0.05926539	0.12008393
0.10805983	0.5516108	0.13239147
0.59217719	0.31123122	0.12072727
0.61634314	0.80610317	0.11301674
0.63976586	0.06838728	0.61655141
0.60915828	0.56277217	0.63717029
0.10964151	0.30875486	0.62912146
0.13837158	0.8158077	0.60860453
0.11310065	0.05972406	0.12179508
0.09550068	0.5554973	0.13084429
0.57773974	0.31569175	0.11022814
0.62297766	0.80932381	0.1062577
0.64787921	0.06663463	0.61689406
0.61364819	0.56515346	0.64018781
0.10573285	0.30859172	0.62778325
0.11767143	0.81546784	0.62036664
0.116019	0.06194346	0.12462422
0.09217558	0.55807163	0.12639404
0.5761301	0.31727964	0.10607894
0.62009818	0.81270264	0.11110284
0.63578713	0.06300423	0.62526284
0.61048583	0.56646291	0.63636609
0.11045078	0.31395011	0.63453186
0.10014092	0.81266631	0.6324119
0.11692959	0.06704145	0.1288637
0.09817409	0.5576422	0.12826533
0.58934243	0.3107605	0.10698491
0.62206316	0.8148909	0.12102913
0.61942057	0.06070914	0.62792545
0.60301605	0.56345712	0.62755474
0.12541614	0.31617455	0.64041378
0.10287966	0.80866566	0.6303717
0.1209341	0.06688205	0.13354009
0.09706863	0.55702084	0.13638446
0.60377283	0.30161378	0.10872617
0.63315437	0.81694374	0.12353013
0.62373892	0.06022927	0.62597994
0.59686903	0.56003313	0.61843199
0.12705993	0.31277547	0.63559949
0.11708506	0.80683379	0.623425
0.12502719	0.06149157	0.13188994
0.09480303	0.55981512	0.13548457
0.60319149	0.30201446	0.10929084
0.63906171	0.81729431	0.1151689
0.63275196	0.05980224	0.62801102
0.59585489	0.55975506	0.61351681
0.11596474	0.31021411	0.61991896
0.11671241	0.80824746	0.62254614
0.12274047	0.05884692	0.12315177
0.09972133	0.56345679	0.12097457
0.59513803	0.31127603	0.10602263
0.6398082	0.81533118	0.10771263
0.63063006	0.06061852	0.63650176
0.59813691	0.56335722	0.61719802
0.10900093	0.31840755	0.61083961
0.10588863	0.80934963	0.62387153
0.11845132	0.06119015	0.1158506
0.10902835	0.56448738	0.10462908
0.5989816	0.31453399	0.10356232
0.64002472	0.81099392	0.110965
0.61921425	0.06126816	0.63855839
0.59665632	0.56367368	0.62321697
0.11059241	0.32594412	0.61700789
0.10882703	0.80794146	0.61619833
0.1201456	0.06540225	0.11971208
0.11415065	0.56450329	0.10104769
0.61051366	0.30918905	0.10868013
0.64058243	0.8088622	0.12244299
0.6139575	0.06105565	0.63170563
0.59486163	0.55865625	0.62137719
0.11292334	0.32354645	0.62483929
0.12156974	0.80613166	0.60544847
0.12406033	0.0659005	0.12952489
0.10773011	0.56721371	0.11333733
0.61460763	0.30249686	0.11555234
0.63512936	0.8102789	0.13087461
0.61879712	0.05685937	0.61967502
0.59935502	0.55391999	0.60934502
0.1111078	0.31451123	0.62003476
0.1231631	0.80737034	0.60628406
0.12126518	0.06432044	0.1370889
0.09745029	0.56968648	0.12188585
0.61682126	0.29834981	0.11476961
0.62296477	0.81016898	0.12447844
0.62425163	0.0492258	0.60721652
0.60981394	0.5543334	0.59837774
0.10937477	0.31023943	0.60392707
0.11318772	0.80947287	0.61370314
0.11856561	0.06324884	0.1370531
0.09500062	0.56784689	0.11257697
0.62065213	0.30239875	0.10912306
0.61713171	0.80533618	0.11645771
0.62627451	0.05012959	0.61088898
0.61965026	0.55466435	0.59836052
0.10942437	0.31240417	0.58830845
0.10360016	0.81037966	0.61303748
0.12312089	0.06489507	0.13708886
0.10092287	0.56558798	0.10289968
0.61828442	0.31102514	0.11024315
0.62203029	0.80122527	0.11771837
0.61796981	0.05246319	0.62231134
0.62001181	0.55123541	0.60620491
0.11042866	0.31534881	0.59080817
0.10803299	0.81283489	0.61171619
0.12399881	0.06668286	0.1359871
0.10731147	0.56876433	0.10623024
0.62227618	0.31646	0.11698382
0.62457937	0.80486249	0.11820529
0.60887708	0.04844944	0.62154221
0.61717846	0.54883606	0.60894722
0.10979982	0.31492855	0.5995795
0.11847029	0.81843052	0.61322456
0.11308765	0.0640177	0.12506685
0.1114634	0.57380007	0.10964979
0.62806526	0.31165842	0.12211774
0.61400759	0.80827206	0.10538133
0.61051701	0.04452765	0.60827383
0.61710505	0.55091332	0.60248773
0.10475247	0.31345162	0.60127496
0.1231791	0.82471742	0.61424232
0.10918345	0.06010368	0.11555407
0.11468366	0.57507785	0.10462762
0.62296701	0.30076775	0.12004919
0.5972893	0.80559521	0.10629927
0.61748046	0.04758756	0.60059271
0.62106224	0.55090026	0.60037856
0.09509076	0.3153505	0.60034178
0.12267744	0.82774231	0.61134522
0.11814138	0.060927	0.1102744
0.12258125	0.57370155	0.10262133
0.61202376	0.30254175	0.1145562
0.59001148	0.80319567	0.1222831
0.61609603	0.05436449	0.61053806
0.62193847	0.54917268	0.61075658
0.09438601	0.31943327	0.60861061
0.1188951	0.82578711	0.60752295
0.12242607	0.06948059	0.10753044
0.13266675	0.57232505	0.11324823
0.61333439	0.31254046	0.11200754
0.60224564	0.80504545	0.1197037
0.60833127	0.0568462	0.62926298
0.61693625	0.55230376	0.62532616
0.10764216	0.32056127	0.62253271
0.11240811	0.82301787	0.60733396
0.1185773	0.07796952	0.11045924
0.13223641	0.57052478	0.12591898
0.62704605	0.31052959	0.11272823
0.61108984	0.81046261	0.10226305
0.60495423	0.05544555	0.63587368
0.61178209	0.55742056	0.63023949
0.11314094	0.31823322	0.63085786
0.11292674	0.82278273	0.61147649
0.11739732	0.07522402	0.11692047
0.12548142	0.56737825	0.12810709
0.63692397	0.30144797	0.10936264
0.60488843	0.81303233	0.09328164
0.61296445	0.05421099	0.62068159
0.62161993	0.55938255	0.62043112
0.10116273	0.31443624	0.62564272
0.12032842	0.8228157	0.61989275
0.12514797	0.06770591	0.11724133
0.12447142	0.56572536	0.12074406
0.63628039	0.30511706	0.10293514
0.60425885	0.81095535	0.10704135
0.61680442	0.0573615	0.60805833
0.63353623	0.5580152	0.61035549
0.09278124	0.3117387	0.61468995
0.11943405	0.8232209	0.63524626
0.12894368	0.06715891	0.1109833
0.13164409	0.56561333	0.1129051
0.62695332	0.31383463	0.10459619
0.62292689	0.80688206	0.12396365
0.60485819	0.063728	0.61964849
0.63029797	0.55807855	0.6090152
0.09569927	0.31284082	0.61066526
0.10892491	0.82473672	0.64566265
0.12190025	0.07327649	0.10776185
0.13714404	0.5642004	0.10869289
0.62051466	0.31428283	0.11584748
0.64652203	0.80539983	0.12603824
0.60120802	0.06714064	0.6365165
0.61945497	0.56127937	0.61532109
0.11214999	0.31852838	0.61841123
0.10694642	0.82508084	0.64339729
0.11343623	0.07808731	0.11638172
0.13752979	0.56287549	0.11285031
0.62212671	0.30642114	0.11604785
0.65263734	0.80960117	0.11572482
0.60559022	0.06498265	0.63055681
0.61727114	0.56401941	0.61986668
0.12932689	0.32365065	0.62810921
0.12099343	0.82156552	0.64147992
0.11482409	0.07128659	0.12970922
0.13431495	0.5646411	0.12559638
0.62922387	0.30148357	0.10710561
0.63980483	0.81541509	0.1150825
0.60527835	0.06180088	0.61367038
0.62401227	0.5668338	0.61760512
0.12965362	0.32264484	0.63359554
0.135193	0.81762704	0.6454807
0.1240698	0.06031878	0.13586062
0.13306496	0.56914936	0.13565083
0.63440266	0.30784975	0.11063336
0.63685056	0.81787617	0.13119846
0.59910564	0.06350968	0.61173268
0.63077188	0.56783274	0.61227173
0.12875458	0.31829114	0.63001694
0.14232827	0.81879147	0.65049854
0.12655999	0.06229981	0.13513511
0.13375701	0.5720581	0.12762051
0.62736916	0.31677576	0.13099127
0.65186296	0.81510226	0.14834032
0.59487768	0.06898986	0.62846111
0.62896721	0.56716927	0.61132789
0.13715376	0.32020758	0.6268685
0.14401134	0.81880028	0.6500462
0.11689725	0.07294341	0.13679927
0.12792203	0.57113101	0.11621805
0.62191543	0.3177579	0.14530442
0.6507438	0.81306243	0.15171855
0.59991999	0.07182156	0.63446969
0.62524449	0.56840784	0.61762192
0.14029374	0.32217813	0.63328509
0.14515368	0.81436839	0.64343813
0.10984282	0.07460624	0.13772293
0.11826569	0.5675992	0.12402792
0.63134043	0.31576922	0.13702134
0.63191474	0.81818818	0.13964468
0.61260921	0.06854309	0.61820963
0.62850423	0.57159332	0.623695
0.13516581	0.31544311	0.64018983
0.14865529	0.80868644	0.63592141
0.11639529	0.07036961	0.13111431
0.11846341	0.56739643	0.1310509
0.63876453	0.31797423	0.11662089
0.62259208	0.82291233	0.13608833
0.62239271	0.06390165	0.6063791
0.64021165	0.57338145	0.6183982
0.12960175	0.30892892	0.62876897
0.15134211	0.80801894	0.63356121
0.11957095	0.06844553	0.12604223
0.13012394	0.57256818	0.12513467
0.63355009	0.32353288	0.11156129
0.63377484	0.8189931	0.14667986
0.6237879	0.06542283	0.61978316
0.65208732	0.57289849	0.61206345
0.12573355	0.31052138	0.61633714
0.1444617	0.81202702	0.62917828
0.11062918	0.06782287	0.1288653
0.143288	0.57475141	0.12252507
0.62977501	0.3252399	0.12229704
0.64330557	0.81308824	0.15645542
0.61882919	0.0713487	0.6364667
0.65357263	0.57128741	0.61680204
0.12572576	0.31862577	0.62537263
0.13518192	0.81748099	0.61974221
0.10021775	0.06551776	0.13203771
0.14837066	0.5702373	0.13143762
0.62913554	0.32238686	0.13004863
0.63539453	0.8175434	0.14844608
0.62965957	0.07264761	0.64014491
0.64278512	0.57122447	0.62865287
0.13025371	0.32432246	0.64539079
0.13974651	0.8186581	0.62033876
0.09820506	0.06412601	0.12971798
0.144817	0.56616651	0.14570907
0.6284884	0.31919923	0.12404959
0.61780382	0.82952411	0.13039297
0.64631408	0.06754108	0.62970575
0.64121435	0.57139719	0.63749691
0.13929176	0.32096726	0.64824467
0.14817444	0.81656117	0.62655706
0.10310474	0.06635973	0.12297431
0.14094877	0.5663581	0.15185916
0.62550271	0.31931837	0.11645971
0.60945465	0.83407758	0.12659113
0.65577056	0.06602005	0.61757538
0.65733095	0.56943311	0.64136801
0.15059137	0.31482692	0.63274986
0.14334091	0.81794378	0.6223827
0.10761316	0.07167157	0.11582015
0.14477219	0.57036641	0.14715221
0.62526855	0.32243881	0.12450172
0.61237393	0.8245151	0.13823271
0.6490707	0.06854904	0.61656702
0.65659907	0.56569837	0.64476533
0.1486521	0.31604468	0.62661
0.1287234	0.82406672	0.61363492
0.10611231	0.07600381	0.10934441
0.15276638	0.57147648	0.14099685
0.63039272	0.32385508	0.13620002
0.61476499	0.81478771	0.1401828
0.63821171	0.06819749	0.62308141
0.6366382	0.56202405	0.65197122
0.13670163	0.32054569	0.63379625
0.11732537	0.82745426	0.61151205
0.10512981	0.07668263	0.10987078
0.15726739	0.56687899	0.14056089
0.63548548	0.31953061	0.13125747
0.61306988	0.81569835	0.12857403
0.63956088	0.06640693	0.62224176
0.62673428	0.56056098	0.65754236
0.13137269	0.31823012	0.63664025
0.1182334	0.82490863	0.61642353
0.11496415	0.0759986	0.11154228
0.15147484	0.56694903	0.14233337
0.6395493	0.31359823	0.12501387
0.61255094	0.81861588	0.11694999
0.64867458	0.06552771	0.61513783
0.63520869	0.56261322	0.65697444
0.13737612	0.31484565	0.6246236
0.12491635	0.82044402	0.62020557
0.12502048	0.07381396	0.10439935
0.14209617	0.57166019	0.13799479
0.63935925	0.31243694	0.12820933
0.61814087	0.81611283	0.11876181
0.64668741	0.06451775	0.61909707
0.64850814	0.56353715	0.65252007
0.14159512	0.31643991	0.61179238
0.12627881	0.82139768	0.619269
0.12677798	0.07056409	0.10212947
0.14282114	0.56875561	0.13264819
0.64040123	0.31407272	0.13373588
0.62490897	0.81082963	0.12714546
0.63411809	0.06243181	0.63071761
0.64787749	0.56331968	0.64626129
0.14030748	0.32166457	0.61206715
0.11889249	0.82520466	0.61763075
0.12868552	0.06909559	0.11295319
0.14425224	0.56216705	0.13453203
0.63938171	0.31461226	0.13499573
0.62500092	0.80762909	0.1278638
0.62676378	0.06077034	0.63488107
0.63598802	0.56556317	0.63992703
0.13538445	0.325487	0.62417836
0.11038708	0.82169522	0.61785927
0.13544476	0.06827769	0.12424564
0.1319796	0.56323461	0.1433997
0.63913894	0.3121536	0.13228329
0.6229495	0.80576568	0.11740504
0.63303727	0.06100617	0.62468346
0.62832957	0.56861298	0.63644584
0.14057992	0.3243283	0.63246567
0.11190092	0.81346201	0.61663182
0.13902136	0.06508181	0.12199603
0.12149614	0.56903009	0.14665419
0.64535696	0.31002179	0.1302134
0.6262412	0.80641561	0.11392554
0.64107907	0.06292822	0.611556
0.63410493	0.56898087	0.64053722
0.15492459	0.31985343	0.6276146
0.12020764	0.81317283	0.61102586
0.13760556	0.0607478	0.11568847
0.12491832	0.5719924	0.13708902
0.64584658	0.31309988	0.13261638
0.63248443	0.81121931	0.1261529
0.63490921	0.06292003	0.61004074
0.6477216	0.56499321	0.64543411
0.16706432	0.3178753	0.62056151
0.11817299	0.81819204	0.6101127
0.14031735	0.05863124	0.12484056
0.13699987	0.56944133	0.11989084
0.63376683	0.31737309	0.13911405
0.63900214	0.81306253	0.13784832
0.62110397	0.06062237	0.62085081
0.65408955	0.56005385	0.64231188
0.16460218	0.31951169	0.62035554
0.10889461	0.81739263	0.6206197
0.14690282	0.05961132	0.14292095
0.14475555	0.56773763	0.1104057
0.6292995	0.31515148	0.14546266
0.64167875	0.81054321	0.1402526
0.61816478	0.06059472	0.62766641
0.64333423	0.55864232	0.63029926
0.15096336	0.31717197	0.62310216
0.11113087	0.81033043	0.62979044
0.14758001	0.06286292	0.14434141
0.13104594	0.56976809	0.11311772
0.64589542	0.30827024	0.1486037
0.63657547	0.81138277	0.13354233
0.6262198	0.06335726	0.6192403
0.62615834	0.5610338	0.62140733
0.13697883	0.31221112	0.62179495
0.12663215	0.80646605	0.63101232
0.14115847	0.0659887	0.12913814
0.11537806	0.57252509	0.11835656
0.65665391	0.30466791	0.15034284
0.62676454	0.81413791	0.13165089
0.63407628	0.06354792	0.61334068
0.62776682	0.56261914	0.62350531
0.13816636	0.30951778	0.61881376
0.14048805	0.81256478	0.6292113
0.13619884	0.06554267	0.12180764
0.11597156	0.57050948	0.11995353
0.64287513	0.30807792	0.15024585
0.62148663	0.81226972	0.13376754
0.63168989	0.0604382	0.61909885
0.63497999	0.55982191	0.63113267
0.14314622	0.30722617	0.62305344
0.1383437	0.81865234	0.63309384
0.13839485	0.06290918	0.13323749
0.11927022	0.56552895	0.12346511
0.6256944	0.3122749	0.15110877
0.62494851	0.80721164	0.13424019
0.6282208	0.06044475	0.63140327
0.62859985	0.55746915	0.6299778
0.13650634	0.30623291	0.63130389
0.12214015	0.814251	0.63706389
0.14374318	0.06459874	0.14092166
0.11434697	0.56314838	0.12556181
0.6246412	0.30836703	0.15789053
0.62948196	0.80587196	0.12863928
0.63459897	0.06255327	0.6394423
0.61590199	0.56027723	0.62364496
0.12569883	0.31080818	0.63206277
0.1071557	0.80573923	0.63616796
0.1422614	0.06881601	0.13382655
0.11023429	0.56759581	0.12796387
0.63659058	0.30195709	0.15311596
0.62426724	0.80982393	0.11947056
0.64118829	0.06257872	0.64231416
0.61064695	0.56489342	0.6254934
0.12281277	0.31746827	0.62715728
0.10722504	0.80728277	0.6348039
0.12663008	0.06853527	0.12494949
0.11832536	0.56880385	0.13024156
0.64046656	0.30314997	0.13249416
0.61220399	0.81397137	0.11200782
0.63921969	0.06044303	0.64441825
0.6149631	0.56159337	0.6352529
0.12394077	0.31712392	0.62688741
0.11190745	0.81812357	0.63635139
0.11518405	0.06392693	0.12334224
0.13481333	0.56353192	0.12947637
0.62545323	0.31064638	0.11622277
0.60886741	0.81441677	0.10688969
0.63234361	0.05775223	0.64546058
0.62509697	0.55575803	0.6374618
0.12246168	0.31216563	0.6364881
0.10815796	0.82713442	0.63981568
0.12084217	0.06086466	0.12649085
0.13885102	0.55947211	0.12371273
0.60780764	0.31505826	0.11671275
0.61481238	0.81322667	0.10777736
0.62485678	0.05724991	0.64673902
0.62554985	0.55505206	0.62938084
0.11887468	0.30947819	0.64517644
0.10103457	0.82185514	0.64114643
0.12703075	0.0639677	0.12626115
0.1262561	0.56098001	0.12231074
0.60621111	0.31247738	0.12490195
0.62143376	0.81341688	0.11795363
0.61862717	0.05876979	0.64272927
0.60851323	0.55812583	0.62379397
0.11666885	0.31373983	0.64247698
0.10907097	0.81477967	0.63278173
0.12368053	0.06629161	0.12013292
0.11355485	0.56221991	0.12924253
0.61681278	0.3082878	0.12306659
0.6121436	0.81278048	0.12664033
0.61283072	0.0601168	0.63310755
0.59912711	0.55923356	0.62255335
0.11902076	0.32157345	0.63603973
0.12396873	0.81647188	0.62513272
0.11920824	0.06107303	0.11462153
0.12178111	0.56071131	0.13392164
0.61744489	0.30916918	0.1092753
0.6040731	0.80985083	0.12587771
0.61216956	0.0607483	0.62543377
0.60942662	0.55874524	0.62086129
0.1225385	0.32557186	0.63309196
0.12821905	0.82162666	0.63051001
0.11968431	0.05571124	0.12111469
0.13620375	0.55917685	0.12980196
0.6030701	0.31347078	0.09973689
0.61214806	0.80684058	0.12306552
0.61722629	0.06175128	0.62511604
0.61742293	0.56207737	0.61835947
0.11737877	0.32070694	0.63240352
0.12425877	0.81891968	0.63885543
0.12256781	0.05959271	0.13882928
0.1366315	0.5626693	0.12372105
0.59215901	0.31478072	0.10435733
0.6235137	0.80733549	0.12719919
0.62441198	0.06368661	0.62756255
0.61512713	0.56492981	0.61486686
0.10551939	0.31627607	0.63370484
0.12253509	0.81309121	0.63054733
0.12079389	0.06776252	0.15103803
0.12141275	0.5679923	0.12125314
0.59958171	0.31291886	0.11352191
0.62775818	0.81343259	0.13345814
0.62582454	0.06472906	0.62916582
0.60806171	0.56672073	0.61226796
0.1002996	0.32185758	0.6346453
0.11953058	0.81414074	0.60977806
0.11154344	0.06976703	0.15129512
0.10464555	0.56763357	0.12064635
0.61231277	0.31253561	0.11089622
0.62631419	0.82009419	0.13226086
0.61899501	0.06400797	0.63035388
0.60937333	0.56737676	0.60939453
0.1023131	0.32700342	0.63239925
0.10956329	0.8202136	0.60069966
0.10227989	0.06707839	0.14044701
0.09804652	0.5620482	0.11534041
0.60825922	0.31741588	0.09996814
0.62069553	0.82021239	0.11794749
0.61048303	0.0636502	0.63030681
0.62354957	0.56660613	0.60124735
0.10138501	0.32356057	0.62678704
0.10544859	0.82348086	0.60956482
0.10050192	0.06769354	0.124056
0.09913605	0.56250762	0.10826406
0.58882654	0.32294511	0.09654199
0.61486686	0.81492468	0.1093985
0.60866267	0.06562123	0.62978782
0.63593384	0.56513863	0.59464636
0.09346009	0.32227168	0.61926336
0.11385081	0.82123807	0.62414546
0.09994562	0.07191783	0.12031185
0.09824963	0.5714977	0.10683992
0.57846971	0.32294629	0.10630135
0.61265507	0.81177646	0.11487978
0.61487842	0.06399132	0.63023339
0.63057338	0.56512522	0.60200874
0.08463266	0.3239409	0.61050794
0.12487528	0.81785707	0.624603
0.09361321	0.07351775	0.1310864
0.09225175	0.57330165	0.11428452
0.58545884	0.32039609	0.11578231
0.61666903	0.81486436	0.12284174
0.61857551	0.06012901	0.63054547
0.61688887	0.5655678	0.61136657
0.09065255	0.32110862	0.60720513
0.12903161	0.81601479	0.61836594
0.08612528	0.06910746	0.1309851
0.08835267	0.56783373	0.12404452
0.59450781	0.31948923	0.11078784
0.62038626	0.81534867	0.11857695
0.61336306	0.05984125	0.6270962
0.60979509	0.56515232	0.61091747
0.09487288	0.31508285	0.60835162
0.12475247	0.81439825	0.62122271
0.08839215	0.06381133	0.12125451
0.08850764	0.56840417	0.12528751
0.59835999	0.31927201	0.10327174
0.61855613	0.81115629	0.10716697
0.60786353	0.06355949	0.61912612
0.61138479	0.56496797	0.6059932
0.08591997	0.31235415	0.6079703
0.12260862	0.81303145	0.62735183
0.10318546	0.0663928	0.12611222
0.08982553	0.57277494	0.11650349
0.59819741	0.31641625	0.10946722
0.61500457	0.8094801	0.09995687
0.61180819	0.06877073	0.61311208
0.61161524	0.56326569	0.60379983
0.07789344	0.31438377	0.60597658
0.12758672	0.81536635	0.62231952
0.11021322	0.0759598	0.13366714
0.08722881	0.57329095	0.10609724
0.59982374	0.31220215	0.12303463
0.61794286	0.81217418	0.11181149
0.61230198	0.07025771	0.61841771
0.60589232	0.56045916	0.60578747
0.08131346	0.3169103	0.60818439
0.13666643	0.81628712	0.61232916
0.10812975	0.0807778	0.12450623
0.0824609	0.56977691	0.10617591
0.60517338	0.31048103	0.13235944
0.62448337	0.81551953	0.12974142
0.60223586	0.06831143	0.62936637
0.60293413	0.55987988	0.60726313
0.09555167	0.31650057	0.6140486
0.13914232	0.81613291	0.60837332
0.11209278	0.07731621	0.10641837
0.08246678	0.56763415	0.11024817
0.61201417	0.31071743	0.12836919
0.62565981	0.81360148	0.13250582
0.594325	0.06635304	0.6278487
0.60706323	0.56229303	0.60434931
0.1084823	0.31330866	0.62043792
0.13313313	0.81925247	0.61496403
0.12521145	0.07243493	0.10106062
0.09163798	0.57055176	0.10768603
0.60832512	0.30967761	0.11551366
0.62188136	0.80637647	0.11759873
0.60177056	0.06508563	0.62159031
0.61075585	0.56574587	0.60483001
0.11201267	0.31078439	0.62145769
0.13664582	0.82252038	0.6208321
0.13419041	0.07059304	0.11247433
0.10148055	0.57491128	0.10445155
0.59725251	0.30497326	0.10943571
0.61971952	0.80183083	0.09979558
0.60973238	0.06360831	0.62227297
0.60829966	0.56594496	0.61348171
0.11228759	0.31040319	0.61765221
0.14409142	0.82136884	0.62006334
0.13489072	0.0694698	0.12312472
0.10802194	0.57524542	0.11149569
0.59876619	0.29937311	0.11713854
0.62203716	0.80427087	0.10226086
0.60561907	0.06089406	0.62682639
0.60147307	0.56200756	0.62158241
0.11548319	0.31293883	0.61773274
0.13623091	0.81549618	0.61734655
0.13261003	0.0659483	0.12657669
0.11535844	0.57149284	0.12643097
0.61156576	0.29720179	0.11794912
0.62799415	0.80791052	0.11742975
0.59820946	0.05630128	0.62446483
0.59811542	0.55869754	0.61950373
0.11809837	0.31074364	0.62425611
0.12222997	0.80931298	0.61853608
0.12762677	0.06328966	0.12826598
0.12604721	0.56991375	0.13122009
0.61313338	0.3015238	0.10682548
0.63234251	0.80811709	0.11977069
0.60375262	0.05077088	0.61798064
0.60220605	0.56059186	0.61175092
0.11403184	0.30806758	0.62520188
0.1174669	0.81031685	0.62259787
0.13009967	0.06531628	0.1280712
0.13505554	0.5728552	0.12022254
0.60633515	0.3054985	0.09865565
0.63684784	0.80649553	0.10590347
0.61604706	0.04916941	0.6171013
0.60549925	0.56192256	0.60545389
0.10258418	0.31150207	0.61926124
0.12257446	0.81946887	0.62434868
0.13728184	0.07185683	0.12366361
0.1350411	0.57535204	0.11858883
0.61008043	0.30523718	0.10466115
0.63942908	0.80628178	0.10168184
0.62445934	0.05168426	0.62176455
0.60567463	0.55967239	0.60583402
0.09379343	0.31864977	0.61685401
0.12831466	0.82599582	0.62400753
0.13719528	0.07466067	0.11568536
0.12683771	0.57257733	0.13072415
0.62514225	0.30471929	0.11973488
0.63001637	0.80930858	0.11765831
0.62415443	0.05234733	0.62660932
0.60950135	0.55736389	0.60777696
0.09880328	0.31963526	0.6180508
0.12258608	0.81939016	0.62970053
0.12790881	0.06973904	0.11236495
0.1230898	0.5699789	0.13821172
0.63223773	0.306249	0.13160243
0.62471308	0.81171367	0.13365029
0.62269647	0.05193233	0.62705005
0.61780294	0.55875904	0.605061
0.11806208	0.31934526	0.61916756
0.11034732	0.80991852	0.6429585
0.11414155	0.06538612	0.11964561
0.13056276	0.57189901	0.13418308
0.62687563	0.30954346	0.12616865
0.63071697	0.81343334	0.1276092
0.62578399	0.05467167	0.61960579
0.62444967	0.56104382	0.60412992
0.12244811	0.32198776	0.61961134
0.10449517	0.81318377	0.64743953
0.10316627	0.06694753	0.12704119
0.13758975	0.57303077	0.12817966
0.61851844	0.31155746	0.11933653
0.63807705	0.81302895	0.10996422
0.62727297	0.0567266	0.60575043
0.6235087	0.55806879	0.60919288
0.11092066	0.32266553	0.62147669
0.10483959	0.82321767	0.63357452
0.0986821	0.06804136	0.12813803
0.13330858	0.57005324	0.12702355
0.61585388	0.31046737	0.12307197
0.64115875	0.80715646	0.10754063
0.62261343	0.05662051	0.60261816
0.61638257	0.55036079	0.61808876
0.10334822	0.32212235	0.6248276
0.10994987	0.82144969	0.62642102
0.10076399	0.06422964	0.1298285
0.12489833	0.56787685	0.12844529
0.62317512	0.30906452	0.131945
0.63636372	0.80650803	0.12349814
0.61635091	0.05715862	0.61242247
0.61275262	0.55151204	0.63185062
0.11341016	0.31954416	0.6255995
0.11443889	0.81019449	0.6261202
0.10461543	0.05763879	0.13566563
0.12925994	0.56844541	0.12737432
0.63263491	0.31216933	0.13445899
0.62281282	0.81499272	0.13224896
0.6153869	0.06002491	0.61969591
0.61893277	0.55958268	0.6426274
0.13066898	0.31527832	0.62419727
0.11548052	0.80620633	0.62105659
0.1057159	0.05450372	0.138466
0.13903904	0.56898691	0.12408626
0.63531612	0.31589561	0.12707846
0.61805733	0.82278911	0.12150265
0.6234295	0.06284656	0.62042776
0.62915108	0.5651662	0.64128326
0.13219638	0.31211139	0.62214808
0.11665661	0.81794238	0.61001263
0.1072564	0.0603852	0.13416241
0.1335677	0.56620685	0.1250386
0.62876858	0.31678771	0.12226866
0.62681594	0.82024659	0.1120082
0.63494662	0.06347853	0.62306186
0.63421997	0.56400633	0.63532924
0.12493618	0.30982606	0.62203885
0.11977947	0.82664943	0.60483436
0.11609601	0.07121669	0.12590721
0.11989466	0.56269928	0.12872026
0.62791201	0.31801059	0.12613086
0.63064384	0.81322652	0.1245975
0.63342183	0.06295739	0.63301001
0.6351766	0.5593759	0.6376372
0.13244124	0.30941543	0.625897
0.12667922	0.8176526	0.61371948
0.12935709	0.07176801	0.12214692
0.12421589	0.56194946	0.1309179
0.63736246	0.31830536	0.13479965
0.61442985	0.81131688	0.13781664
0.62187477	0.06392656	0.64402072
0.63909653	0.55949826	0.64267749
0.15010208	0.31015844	0.62769901
0.13244146	0.80447122	0.62565908
0.13611141	0.06380838	0.1244809
0.13336967	0.56029898	0.13187966
0.64852968	0.31527511	0.13746482
0.60883424	0.81460063	0.12658389
0.61904011	0.06583681	0.64194167
0.64908612	0.56458772	0.64037277
0.1609712	0.31080317	0.62579887
0.12907891	0.80543795	0.62846023
0.13341371	0.05830555	0.12651124
0.1303172	0.5549568	0.12723737
0.64437716	0.31331257	0.13347596
0.62464158	0.81558816	0.10680379
0.62518763	0.06474493	0.63303523
0.65854748	0.567459	0.63451024
0.15549019	0.31002544	0.62760435
0.11692323	0.81825045	0.62111119
0.13241126	0.06386259	0.1249483
0.11962792	0.54953316	0.11459647
0.63294124	0.31148439	0.12545885
0.63582033	0.80871193	0.10175651
0.62581994	0.06310945	0.63619672
0.65748543	0.56495212	0.63378612
0.13929746	0.30827179	0.63335534
0.12078096	0.82706168	0.61103558
0.140357	0.06579365	0.12399621
0.12494667	0.54870788	0.11217162
0.63333493	0.30945625	0.12467133
0.62617362	0.79998227	0.11514963
0.62302964	0.06466844	0.64671121
0.6463998	0.56108948	0.64414263
0.14068389	0.31071817	0.63444772
0.13114985	0.82145599	0.61091833
0.14947064	0.0580916	0.1277196
0.14376009	0.55291991	0.12282683
0.64935921	0.31096645	0.13128983
0.62424868	0.800044	0.13269552
0.62965805	0.06595485	0.64649631
0.64370008	0.56126449	0.65755669
0.15832728	0.31452613	0.62801884
0.12512622	0.81004501	0.61669083
0.14659441	0.05363171	0.12745628
0.15369694	0.55775493	0.12836749
0.65693223	0.31513318	0.13242698
0.63414931	0.80981234	0.1351757
0.64065392	0.0651466	0.64005602
0.65203406	0.56590665	0.65806027
0.16702714	0.31339232	0.62122394
0.10841663	0.80649896	0.61634352
0.13465054	0.06199076	0.11838856
0.14724754	0.55969351	0.12510255
0.64849123	0.31725926	0.12437582
0.63885365	0.81520388	0.1277162
0.63876238	0.06407077	0.63845606
0.65550525	0.56676563	0.64452987
0.15849863	0.30968551	0.62190848
0.10436786	0.81500923	0.6117462
0.12967143	0.06922054	0.10791698
0.13751208	0.561723	0.13053654
0.64016171	0.31385124	0.12118917
0.62962176	0.80892898	0.12590896
0.62776285	0.06623494	0.64305926
0.64597088	0.56127502	0.63619693
0.15298986	0.31214646	0.62523455
0.12008701	0.82447796	0.61202715
0.13303189	0.06765155	0.10836868
0.13588107	0.5636017	0.13917182
0.64576672	0.3098573	0.1360909
0.61538192	0.80213017	0.13837598
0.62583345	0.0706517	0.64144552
0.64163105	0.55794361	0.64324455
0.15570647	0.32200844	0.62183563
0.13217334	0.81838187	0.62267225
0.13338633	0.05794079	0.11339567
0.14143636	0.56494992	0.13659932
0.65731781	0.30695417	0.16014591
0.60954471	0.80547252	0.14881484
0.63601324	0.07142529	0.62590054
0.64666802	0.56187066	0.65024768
0.15722072	0.32533461	0.61700921
0.1276638	0.81021786	0.63690094
0.12392621	0.05365973	0.1164518
0.14272535	0.56648	0.12546295
0.65854237	0.30584923	0.16500344
0.61739286	0.81362169	0.14840974
0.65053856	0.06516575	0.6072756
0.65149477	0.56483615	0.64413437
0.15085017	0.32312222	0.61985379
0.1221002	0.81387289	0.64020668
0.11640774	0.05935519	0.11595988
0.137797	0.56684823	0.12100309
0.64603182	0.30490368	0.14830946
0.63033747	0.81312517	0.14258241
0.65747028	0.05904132	0.60230788
0.64853982	0.56354427	0.63198846
0.14337105	0.32563619	0.63138687
0.12693453	0.82092478	0.63236246
0.1224102	0.0666823	0.11758883
0.1326096	0.56683965	0.1242618
0.63843875	0.30384955	0.13286821
0.63671496	0.80631388	0.13775929
0.65163801	0.05812994	0.6081765
0.64471155	0.5627929	0.62675731
0.14268491	0.33065124	0.63934212
0.14015006	0.82182165	0.62952435
0.13567849	0.06773126	0.12207824
0.13365675	0.56950113	0.12560472
0.64793063	0.30446192	0.13623384
0.6273702	0.80477936	0.14201173
0.63752975	0.06051351	0.61057504
0.64151882	0.56251009	0.63566349
0.14901462	0.33279712	0.63083037
0.15494529	0.8178847	0.63661596
0.13802152	0.06559041	0.13144962
0.13781557	0.57358476	0.12136944
0.65202434	0.30631771	0.14705885
0.61649351	0.81148906	0.15213642
0.62488793	0.06160845	0.60762192
0.63672181	0.56285622	0.64483538
0.15037506	0.32796082	0.62041734
0.1535794	0.81685712	0.6385745
0.13269131	0.06646767	0.13736274
0.13870734	0.57682635	0.11780798
0.64554743	0.30649541	0.14219155
0.61865992	0.81646073	0.14766819
0.627444	0.06053458	0.6092105
0.63382989	0.56699695	0.63895119
0.14537631	0.31919696	0.62411907
0.13633029	0.82601384	0.63267288
0.1270869	0.07391701	0.13441715
0.13655323	0.57808339	0.11953092
0.63832017	0.30627392	0.12352882
0.6334306	0.81334987	0.12818494
0.63436411	0.05866096	0.62163589
0.6351038	0.57092537	0.62723881
0.13552262	0.31464073	0.63203041
0.12532152	0.83471279	0.6342708
0.13132598	0.07965883	0.12720395
0.13735425	0.57554519	0.12710574
0.63242775	0.31059093	0.11567331
0.63649904	0.80655039	0.11957866
0.63185663	0.05784752	0.63471249
0.64127477	0.5708535	0.62470414
0.13058371	0.31846288	0.62590392
0.13421233	0.83181644	0.64692801
0.13948477	0.07529674	0.12264714
0.14072008	0.57169804	0.1312003
0.62874062	0.31651476	0.12788996
0.62091214	0.80613169	0.12771362
0.6263263	0.0587637	0.6380283
0.64847978	0.56496595	0.63227697
0.13362045	0.32512841	0.61610746
0.14534142	0.82534293	0.64564658
0.13521988	0.06789515	0.12247681
0.14091834	0.57099698	0.12425438
0.62637513	0.31900206	0.13875328
0.61201149	0.81373795	0.13135855
0.63203906	0.05981966	0.63507622
0.64412803	0.55872742	0.63686852
0.13583527	0.32307417	0.62204492
0.14202952	0.82332621	0.64055916
0.12183988	0.07137014	0.12173394
0.13659408	0.5728345	0.11645475
0.62371762	0.31736934	0.12919465
0.62051086	0.81953295	0.12411507
0.63891832	0.06177172	0.63352555
0.63177973	0.55866945	0.63107537
0.12466417	0.31497746	0.62856847
0.12571433	0.82870505	0.63698209
0.1191733	0.07971726	0.11661879
0.13501728	0.57173773	0.12444178
0.6223747	0.31586468	0.10877533
0.63436235	0.81890608	0.12165054
0.63624726	0.0628941	0.63661597
0.6256533	0.56172536	0.62339662
0.11373661	0.31368197	0.63046014
0.11772429	0.83365228	0.62935695
0.12510784	0.07475163	0.11030583
0.14029134	0.56794146	0.13792271
0.62459627	0.31882969	0.10974972
0.63732519	0.81655942	0.12722163
0.62633272	0.06122983	0.63832949
0.62765783	0.56106475	0.62646952
0.12166827	0.32236042	0.63403926
0.12748073	0.82795556	0.6188828
0.12861236	0.06704061	0.10925222
0.14805439	0.56741442	0.1395736
0.62527352	0.32239804	0.12652842
0.6276388	0.81766516	0.1302645
0.61696907	0.06053304	0.63258863
0.62535991	0.55802709	0.63359545
0.13235334	0.32839363	0.63692315
0.13205062	0.81850135	0.60821724
0.12087054	0.07159651	0.11282155
0.15154773	0.5716152	0.1322857
0.6215649	0.32107166	0.1318562
0.62055334	0.81971635	0.12455477
0.61478378	0.06511687	0.62420603
0.61960585	0.55977988	0.63664994
0.13069313	0.32331953	0.63439105
0.11567714	0.81663788	0.60093856
0.11107856	0.07956795	0.1176309
0.14640223	0.57516732	0.13226639
0.61925594	0.32031995	0.11510834
0.62402367	0.8185851	0.11751271
0.6176718	0.06854061	0.62372429
0.61510708	0.56520131	0.63400482
0.12154993	0.31545218	0.62922009
0.09799591	0.82098038	0.60518985
0.11621519	0.08116094	0.11687539
0.13639094	0.57381476	0.14409215
0.62328401	0.32433195	0.09965516
0.62722757	0.81502837	0.11839419
0.61665116	0.06613973	0.62846194
0.61571449	0.5695798	0.62648461
0.11440381	0.31574725	0.62588954
0.10533343	0.82516412	0.61924974
0.12736219	0.07295952	0.11134071
0.13070545	0.57053253	0.14752762
0.62594804	0.32533314	0.10528628
0.61850428	0.81475054	0.12888869
0.60933732	0.0631742	0.63021126
0.62118821	0.5684139	0.6191734
0.11268266	0.32119088	0.62385487
0.12438234	0.82198499	0.62902924
0.12766424	0.06469939	0.10831961
0.12783542	0.5707269	0.13376984
0.62799981	0.32190178	0.12242591
0.6020873	0.82100712	0.13375187
0.60959675	0.06626883	0.63098441
0.6256375	0.56174127	0.61576295
0.11326866	0.32243343	0.62404153
0.1323066	0.81602275	0.62558393
0.12086731	0.06798011	0.11350499
0.12002313	0.57579539	0.12577233
0.63085072	0.3205874	0.13048457
0.59379873	0.82566606	0.12819347
0.61756524	0.0729331	0.63156015
0.62140449	0.55684115	0.61938958
0.10583362	0.3182523	0.62623997
0.12356798	0.81600958	0.61633876
0.11698641	0.07977786	0.12031137
0.10699481	0.5729125	0.13299759
0.62890938	0.32350212	0.12345011
0.59950361	0.82312944	0.12519517
0.62038431	0.07144628	0.62997398
0.61178983	0.55909395	0.62420113
0.09462736	0.31464963	0.62661125
0.11504895	0.81809299	0.62019313
0.11812774	0.07726728	0.12429344
0.10550579	0.56625648	0.13711151
0.6192762	0.32227938	0.11841601
0.60968746	0.81787062	0.12996513
0.61632735	0.06436431	0.62787136
0.60959136	0.56539036	0.62255476
0.09041475	0.32071494	0.62302014
0.11859667	0.81549135	0.63364866
0.12450728	0.06555028	0.12901653
0.11401596	0.56772575	0.12859884
0.60805878	0.31874832	0.13630488
0.61512885	0.81583899	0.13431113
0.61040935	0.06341397	0.62420031
0.61035865	0.56991931	0.61899499
0.09322505	0.32375315	0.61989367
0.12933809	0.81123632	0.63174761
0.12496795	0.06465199	0.13234346
0.10612761	0.57250465	0.11829345
0.60935891	0.31484109	0.14875032
0.61914656	0.816476	0.13212148
0.61196424	0.06908293	0.62552815
0.60649246	0.57236876	0.62241016
0.09603316	0.32016832	0.62421679
0.13323292	0.80984713	0.62747644
0.11856266	0.07300633	0.13423527
0.09417942	0.57341661	0.11207548
0.61942215	0.31329918	0.13986068
0.62514663	0.81706164	0.1235645
0.61519546	0.07370267	0.63066675
0.59852721	0.57527091	0.62591062
0.09483254	0.31633484	0.62865491
0.12141635	0.81289303	0.63985412
0.1135004	0.07467131	0.13745819
0.087977	0.5734159	0.11975683
0.62214728	0.31354956	0.12190901
0.62672271	0.81632249	0.11985569
0.61550116	0.07058435	0.63454313
0.59531011	0.57627819	0.62500477
0.09538021	0.31858043	0.62908522
0.11029816	0.81649204	0.65712543
0.11361956	0.07035277	0.14110377
0.08974485	0.57262826	0.12399162
0.60999742	0.31087183	0.11332868
0.62585234	0.81340277	0.13236512
0.614505	0.06487833	0.63274562
0.59370791	0.57057115	0.62347239
0.1017896	0.32214288	0.62417644
0.1107923	0.81649555	0.65327919
0.11408244	0.06940183	0.14283194
0.09723305	0.57128243	0.11450447
0.59663259	0.30433488	0.11427762
0.63038522	0.81153128	0.14033234
0.60957911	0.06575168	0.63238189
0.58740142	0.56255526	0.62255712
0.11075986	0.32095665	0.61811034
0.11995741	0.81586286	0.63263528
0.11235415	0.0730707	0.1409598
0.09674117	0.57230131	0.10648984
0.59356904	0.30342792	0.11668551
0.63735447	0.81095081	0.13151046
0.60726075	0.0707284	0.63564464
0.58121314	0.56023575	0.62447971
0.12132815	0.31801587	0.61452648
0.11831682	0.81640129	0.62131244
0.10932542	0.0742164	0.13700831
0.08729758	0.57253648	0.11035692
0.59552203	0.31202056	0.11891972
0.63939807	0.81152232	0.12443925
0.61174982	0.0667444	0.63575548
0.5855548	0.56224083	0.62946143
0.12638957	0.31787595	0.6179604
0.10443407	0.8175125	0.62578613
0.10901529	0.06892406	0.13531008
0.08811437	0.57074084	0.1256
0.59305114	0.31386207	0.12099124
0.63360805	0.81279887	0.1236219
0.61672458	0.05642735	0.63109557
0.59898191	0.56368875	0.63209876
0.12365323	0.320023	0.62726349
0.09830335	0.81874019	0.63132722
0.11576898	0.06300597	0.13726318
0.09930499	0.56863082	0.13789761
0.587094	0.30432161	0.12589323
0.62425239	0.81137046	0.12565879
0.6158259	0.05019677	0.6251075
0.60367757	0.56493752	0.62700616
0.11755711	0.32104176	0.62539666
0.11054802	0.8194587	0.62665054
0.12321163	0.06139038	0.13538978
0.10449355	0.5694459	0.13108287
0.58637787	0.29634168	0.13153924
0.62467161	0.80729958	0.12389138
0.61707617	0.05272176	0.62143991
0.59875619	0.56680236	0.61984853
0.1088321	0.31886379	0.61685281
0.11722478	0.82202654	0.61764534
0.12407363	0.06372899	0.13128849
0.09773099	0.56771264	0.10954132
0.59277937	0.30044807	0.12955972
0.63031433	0.80384051	0.11705588
0.6311419	0.05679826	0.61719997
0.59923589	0.5659989	0.61610629
0.09896276	0.31645755	0.61894941
0.10118122	0.82115419	0.61346423
0.1182293	0.06854564	0.13225277
0.08814152	0.56038771	0.10197861
0.60347769	0.30769044	0.12352785
0.62663359	0.80141651	0.11424307
0.64963791	0.05809575	0.61007208
0.60802789	0.56164852	0.61341894
0.09274907	0.31611502	0.6287395
0.0918889	0.81852106	0.62124009
0.11436294	0.07060005	0.13225017
0.08825621	0.55755021	0.11147159
0.60324266	0.30721828	0.12612754
0.62038807	0.80203769	0.11744499
0.65319121	0.05415923	0.60668596
0.61224573	0.55703196	0.60904782
0.09146414	0.315624	0.62969642
0.10445436	0.81897108	0.62827223
0.12058406	0.06638452	0.12967692
0.10181932	0.56062938	0.1202296
0.59410653	0.30194023	0.13239767
0.62504581	0.80828779	0.11276364
0.64489062	0.05548092	0.61210125
0.60543306	0.55425864	0.6019758
0.09050446	0.31388338	0.61547059
0.11940683	0.82167935	0.6184774
0.12868914	0.05987463	0.12744174
0.10643556	0.56275629	0.11660772
0.58447451	0.3044323	0.12823214
0.6273527	0.80994868	0.10511004
0.63179711	0.06122146	0.61646324
0.59632435	0.55281513	0.59918043
0.09302672	0.31251615	0.60586484
0.1237626	0.8215841	0.60197046
0.1255984	0.05708285	0.12718275
0.09436448	0.56124765	0.10462487
0.58538031	0.31241488	0.1182662
0.62247687	0.80637188	0.10426949
0.62027109	0.06291811	0.61988896
0.59821944	0.55402816	0.60551849
0.09876467	0.31311924	0.61215533
0.12222685	0.81782414	0.60520515
0.11250619	0.05872345	0.12925388
0.08893189	0.55973884	0.09943977
0.5952059	0.31980709	0.12324962
0.61632643	0.80730829	0.1077096
0.61779256	0.06200911	0.62334332
0.6104587	0.55729095	0.61013928
0.10139818	0.3152686	0.62152357
0.12434541	0.81301494	0.61454748
0.10984784	0.05828773	0.13000514
0.09949953	0.56051497	0.10685102
0.60133135	0.31765997	0.13468994
0.61758848	0.81055513	0.10617133
0.62165695	0.06315854	0.62197592
0.62933902	0.55816438	0.60507264
0.09884114	0.31641953	0.62302494
0.1327768	0.81067417	0.6092078
0.11947277	0.05472541	0.12458089
0.11608212	0.56209706	0.11435377
0.59659578	0.31054722	0.13034757
0.62629026	0.81099836	0.09984884
0.62385747	0.06507646	0.61954838
0.63705732	0.55592349	0.59793567
0.09622511	0.31616808	0.61605116
0.14370328	0.81176036	0.60367902
0.12129984	0.05299253	0.11497472
0.12574738	0.56137296	0.10570475
0.59230301	0.30863125	0.10950376
0.63221302	0.80830008	0.09508828
0.62148193	0.06438777	0.62040169
0.62577084	0.55443985	0.59951042
0.09774801	0.31692345	0.60941853
0.14640026	0.81275801	0.61030897
0.11495903	0.05679791	0.11027093
0.12574678	0.56122161	0.09828573
0.60217969	0.3153311	0.08732267
0.6264143	0.80713129	0.09703762
0.62269449	0.06482429	0.62098853
0.61371077	0.55926087	0.60949955
0.10466979	0.31792512	0.61267392
0.13678487	0.81071737	0.62090827
0.11183465	0.06232246	0.11643154
0.12260324	0.56022198	0.11080701
0.61964791	0.31929877	0.07806073
0.61363992	0.81010206	0.10027798
0.63047471	0.06528206	0.62101246
0.62093219	0.56423986	0.61798201
0.11392957	0.31933759	0.62701023
0.12968399	0.80736466	0.62508655
0.11811749	0.06475337	0.12726701
0.1212373	0.55992017	0.12401572
0.62367421	0.31577323	0.0851752
0.60409455	0.81470545	0.10380817
0.62916827	0.06482393	0.62267066
0.6347474	0.56415903	0.61727239
0.12407733	0.32059802	0.63884109
0.13191054	0.80740437	0.62352775
0.12331838	0.06374874	0.12955037
0.12589601	0.56316748	0.12565926
0.61801493	0.3096254	0.09992627
0.60586557	0.81658434	0.10679335
0.61307207	0.06280023	0.62643145
0.6312384	0.56177694	0.6152659
0.13205514	0.3200129	0.62723097
0.13895233	0.8110291	0.62457161
0.11994126	0.06544987	0.12150844
0.12923976	0.56513501	0.12153739
0.61892112	0.31082256	0.10444365
0.61089782	0.81396834	0.1092314
0.6020374	0.05966237	0.62969106
0.61818803	0.56184926	0.62325464
0.13228566	0.31698319	0.61485946
0.1410065	0.81324641	0.63100273
0.11125238	0.06981078	0.11311904
0.12482212	0.56437328	0.12575894
0.62575414	0.3150049	0.09789922
0.61141438	0.81190486	0.11483397
0.6082946	0.05768856	0.62771995
0.62183031	0.56265624	0.63346485
0.12880453	0.31141367	0.62499465
0.13169983	0.81033425	0.63325522
0.1072836	0.07142503	0.11458205
0.11933698	0.56427431	0.13345167
0.62919771	0.30795576	0.09904769
0.60676441	0.81304935	0.1258348
0.6128661	0.05776523	0.62595244
0.63683088	0.56332541	0.62925496
0.13362671	0.30886624	0.63562161
0.12497163	0.81011396	0.6272847
0.11120291	0.06721203	0.12409274
0.11973788	0.56783407	0.13691972
0.62862736	0.29861366	0.11437701
0.61215115	0.81598923	0.13832892
0.60937292	0.05958189	0.62600686
0.63795416	0.56435378	0.61694779
0.14065948	0.31019548	0.6240165
0.13021264	0.81519537	0.62283513
0.11448753	0.06385909	0.12729323
0.1272842	0.57183747	0.13468306
0.62647525	0.29888842	0.12385066
0.62759676	0.81652188	0.1449984
0.61292658	0.05949856	0.62038071
0.62395068	0.56697345	0.61549654
0.13744106	0.31307365	0.60983172
0.1357274	0.82299693	0.62075401
0.11259535	0.06502331	0.12197179
0.13728898	0.5698336	0.12966885
0.63202837	0.30582807	0.11653879
0.63258089	0.8113646	0.14720168
0.62539484	0.0589566	0.61648235
0.61763466	0.56887357	0.62714817
0.12616981	0.31233499	0.60803773
0.12630186	0.82480845	0.62057671
0.11075223	0.06877551	0.11820977
0.13465984	0.56390067	0.12516196
0.64379719	0.31121624	0.10435291
0.62055879	0.80541178	0.146169
0.63014585	0.05872747	0.62116833
0.62757149	0.56676069	0.62991879
0.12491341	0.31154459	0.62333002
0.10980512	0.8249396	0.61951174
0.11595372	0.06972329	0.12370271
0.12448476	0.56138821	0.11742728
0.65117519	0.31333655	0.1093687
0.61956675	0.80376285	0.14265005
0.62395203	0.05642922	0.62480502
0.64176698	0.56292716	0.62283501
0.13905616	0.31254557	0.63888776
0.1085411	0.82667006	0.61792885
0.1287939	0.06745266	0.1255518
0.12383614	0.56327075	0.10662898
0.65052713	0.31381885	0.12846423
0.630061	0.80916169	0.14004229
0.61921867	0.05524585	0.62364593
0.64629449	0.5612944	0.62054537
0.14428817	0.3156627	0.63399478
0.11858979	0.82501598	0.62037286
0.13154279	0.06516673	0.12098285
0.13161325	0.56788557	0.10976826
0.64412643	0.31300208	0.13490326
0.63569611	0.81332335	0.13928822
0.62267581	0.0575911	0.62258733
0.64078903	0.56103673	0.63131945
0.1288062	0.31712439	0.61838302
0.12310046	0.82097781	0.62557133
0.12640039	0.06592123	0.11390135
0.14094705	0.57119399	0.12087079
0.6398954	0.3131263	0.12847509
0.6289026	0.81115913	0.13848987
0.62369248	0.06086811	0.62718218
0.63776193	0.55978437	0.64367868
0.1212948	0.31477557	0.61069572
0.11851489	0.81711774	0.62810911
0.12589287	0.06840142	0.11082379
0.14543581	0.57105683	0.1224389
0.64834607	0.31368091	0.12904539
0.62116712	0.80890475	0.13408429
0.6195528	0.06126963	0.63437611
0.64811986	0.56064226	0.64324386
0.13458466	0.31391622	0.60993401
0.11652048	0.81487679	0.62403768
0.12607508	0.06853869	0.1164288
0.14339557	0.56843386	0.11697802
0.65980729	0.31250108	0.13721287
0.62134077	0.813196	0.12962153
0.61867265	0.06362833	0.6336553
0.65456327	0.56070411	0.63007946
0.14677304	0.31951561	0.60681848
0.1204228	0.81500663	0.62411578
0.1242223	0.06746182	0.12615419
0.14361413	0.56643329	0.12493136
0.65544798	0.30980249	0.13897355
0.62940681	0.81677965	0.12747657
0.62195057	0.06843067	0.6233282
0.64365009	0.55816325	0.62176014
0.14388963	0.32554535	0.60028665
0.12432093	0.8162531	0.63605053
0.13067053	0.06894791	0.13025196
0.15238277	0.56756805	0.14432058
0.64469578	0.3089459	0.13435856
0.63539811	0.81637945	0.12393574
0.62490053	0.07015554	0.61735302
0.62946525	0.55816425	0.63409556
0.13442807	0.32483821	0.6024305
0.12085087	0.81417613	0.64017531
0.13755823	0.07172288	0.12612139
0.15768016	0.56859845	0.15136078
0.64468357	0.31218932	0.13309328
0.63128713	0.81384487	0.1167593
0.62177403	0.06831338	0.61891923
0.62943246	0.56048855	0.64632761
0.12986159	0.32322064	0.61913397
0.1119735	0.80940008	0.63180215
0.13489845	0.07132843	0.12458261
0.14963455	0.56452384	0.13878171
0.65307803	0.31697738	0.13707153
0.62423614	0.81259461	0.11392222
0.62146185	0.06714696	0.6193515
0.6385589	0.56126411	0.63782977
0.1346876	0.3272206	0.63268202
0.1119272	0.8088627	0.62475213
0.13112024	0.06854178	0.12641531
0.13946633	0.56169595	0.13067873
0.65580239	0.31959158	0.14151458
0.62259355	0.81367924	0.1192788
0.62726509	0.06463486	0.61392551
0.63441985	0.5604034	0.62534519
0.13917791	0.32828893	0.63082394
0.12279587	0.81167939	0.62647545
0.13357036	0.06891106	0.12423777
0.14046642	0.56657855	0.13779022
0.64890602	0.31834331	0.1430181
0.62579158	0.81415036	0.12770811
0.63015569	0.06187769	0.60704574
0.62166694	0.55957176	0.63079336
0.13927781	0.32273543	0.62311962
0.12475724	0.81372825	0.63614956
0.14055399	0.07037378	0.11709117
0.15469369	0.57046893	0.15458272
0.64068904	0.31516236	0.14362281
0.62743922	0.8103197	0.13254833
0.63011786	0.0618018	0.6078615
0.62932345	0.56016533	0.64356483
0.13748362	0.32067236	0.62186282
0.11341401	0.8157277	0.64059807
0.14420607	0.06848326	0.11388648
0.16616829	0.56918112	0.16315158
0.63954015	0.31366007	0.14774736
0.62083045	0.80704173	0.13144774
0.63271185	0.06401589	0.61883439
0.6431621	0.56266124	0.64900186
0.13716834	0.32380883	0.62968624
0.1148911	0.82118314	0.63104492
0.1373596	0.06633818	0.11650127
0.15980618	0.57004771	0.16010974
0.64681043	0.31525141	0.15133824
0.61330022	0.80873093	0.12924545
0.63768499	0.06405379	0.6244612
0.6372843	0.56633719	0.64384277
0.1417397	0.3278815	0.64063726
0.13161765	0.8281718	0.6201563
0.1290056	0.06724142	0.11683038
0.13977902	0.57369091	0.15025239
0.64839277	0.3146979	0.14248933
0.61816729	0.81205794	0.12815581
0.64113734	0.06075283	0.61528972
0.62694721	0.56764486	0.63472304
0.14845583	0.32697025	0.64249109
0.1316829	0.83163482	0.62396483
0.12914476	0.06763832	0.11231264
0.13562128	0.57305189	0.14145498
0.64086104	0.30885207	0.12117846
0.62295313	0.81306444	0.12792657
0.64033698	0.05984505	0.60923429
0.63045805	0.5624597	0.62979538
0.14967049	0.32098174	0.64044624
0.11743078	0.82768876	0.63672171
0.13344313	0.06591015	0.1087158
0.14691539	0.57089378	0.13958597
0.63391328	0.30819845	0.11364592
0.62008608	0.81200536	0.12654339
0.63797938	0.06347531	0.61970498
0.64347064	0.56581531	0.63048072
0.14359973	0.3161891	0.64406703
0.11805685	0.8228509	0.64183664
0.12692886	0.06431874	0.11112773
0.1498054	0.56985133	0.14110599
0.63550119	0.31338692	0.12160237
0.61276917	0.81209295	0.12333079
0.63989412	0.06620974	0.6295973
0.6514115	0.57504847	0.62905898
0.13907579	0.31684758	0.65249717
0.13308326	0.82498684	0.63000844
0.11732103	0.06586141	0.11597584
0.13178279	0.56823189	0.13169142
0.64027095	0.31437695	0.13272305
0.60904833	0.81284031	0.12241486
0.64572844	0.06333805	0.62676651
0.64633829	0.57296065	0.63233807
0.13678534	0.31857386	0.65251109
0.14085077	0.82489694	0.60722958
0.11496699	0.06929432	0.11853431
0.10902052	0.56695031	0.12577214
0.64029281	0.30975915	0.14176799
0.61328962	0.8109523	0.1284185
0.64942031	0.05846319	0.61848547
0.62943363	0.56421323	0.63830186
0.14003112	0.31422987	0.64249294
0.13154837	0.82106437	0.60561303
0.12414162	0.07058611	0.11633829
0.1061134	0.5672403	0.14010661
0.6322468	0.30504004	0.14384866
0.6206331	0.80690431	0.13278509
0.64502192	0.05849561	0.61767461
0.62447199	0.55990655	0.63966494
0.1468062	0.30460178	0.6323167
0.11338022	0.8197862	0.6254509
0.13101717	0.06688992	0.10622011
0.11704444	0.56495126	0.1448851
0.62366044	0.30419075	0.1389791
0.62259239	0.80530427	0.13040523
0.63957991	0.05980015	0.63098712
0.6340434	0.56149971	0.63669426
0.14743239	0.30257	0.63009575
0.10194236	0.82013129	0.63166806
0.12573604	0.06371584	0.10057294
0.12369194	0.56249095	0.12786008
0.62256007	0.30508988	0.13047617
0.61917535	0.80790631	0.12899803
0.63905156	0.05773553	0.63938514
0.64612603	0.56404162	0.6359961
0.14047816	0.31158028	0.63214399
0.10745868	0.81759554	0.62039652
0.11370231	0.0631276	0.10786735
0.11694798	0.56326954	0.11374455
0.62058415	0.30420097	0.12385239
0.61825691	0.81116548	0.13176094
0.63699874	0.05734061	0.62845424
0.64417226	0.56370226	0.63781468
0.13326633	0.3255576	0.625298
0.11908281	0.81331382	0.61347098
0.11158455	0.06296862	0.11834161
0.1085314	0.56356245	0.1189338
0.61479563	0.30077925	0.11976102
0.62442816	0.81119602	0.13152425
0.63088396	0.05878039	0.61793819
0.63051226	0.56144154	0.63537395
0.13380445	0.32749631	0.61581576
0.12206476	0.81200122	0.61837215
0.11778548	0.0616745	0.12244013
0.11257406	0.55855993	0.1320403
0.60974348	0.29797335	0.11390347
0.6299424	0.80958754	0.12784161
0.62999584	0.05946658	0.61708716
0.61842561	0.56070043	0.62926947
0.13230825	0.31950618	0.61451514
0.11715457	0.81179929	0.62649401
0.12674203	0.06137436	0.12874509
0.12805639	0.5519584	0.12978409
0.60813434	0.29980687	0.10837596
0.62631804	0.807815	0.12804502
0.63237176	0.05967722	0.6228413
0.62299524	0.56207521	0.62842737
0.12811256	0.31456268	0.61855809
0.12062596	0.80998248	0.62742125
0.13910293	0.05945435	0.13868604
0.13163823	0.55109101	0.11015075
0.61001106	0.3026994	0.11112166
0.61585022	0.80513649	0.1260128
0.62521178	0.05899584	0.63405045
0.62391484	0.55953453	0.6321803
0.12567985	0.3190912	0.62015067
0.13049668	0.80622923	0.62068457
0.13909259	0.05734729	0.14388021
0.1154664	0.55414075	0.09547622
0.6102601	0.3005586	0.12166599
0.61595543	0.80073211	0.11964584
0.62243212	0.05825908	0.63867758
0.61201841	0.55152357	0.63492281
0.12659448	0.32334823	0.61887838
0.1261957	0.80326873	0.61776237
0.13148264	0.05667748	0.1418669
0.10225409	0.55633316	0.10507441
0.60383028	0.29970456	0.13139181
0.62935886	0.79612558	0.11484372
0.62650148	0.05813828	0.62703455
0.60020162	0.54828247	0.63160875
0.12683492	0.31834485	0.61620109
0.11144397	0.80550376	0.62506616
0.12788778	0.05818653	0.13409263
0.10315492	0.5570762	0.12191277
0.59677163	0.30371209	0.13411968
0.63741365	0.79435103	0.11550457
0.63239703	0.05951508	0.61703667
0.60223693	0.55160962	0.6253446
0.12193764	0.30893682	0.61471259
0.11067923	0.81306866	0.63345527
0.12935959	0.058501	0.1271421
0.11351858	0.55851368	0.12603043
0.60210467	0.3035567	0.13102561
0.63284097	0.79635583	0.1193089
0.63253465	0.061676	0.62074104
0.60659541	0.55570781	0.61878868
0.11337161	0.30586691	0.61102945
0.11874475	0.81958741	0.63208759
0.12784715	0.05613614	0.1270504
0.11719874	0.55899564	0.10675627
0.61322347	0.29858845	0.12818579
0.62753813	0.79779056	0.1223001
0.62598738	0.06249201	0.62946794
0.60490773	0.55589113	0.61279511
0.10849607	0.3094509	0.60280464
0.12193407	0.81963219	0.61798674
0.12064213	0.05325573	0.13526196
0.11131224	0.55880141	0.09701832
0.61474997	0.29776368	0.12242316
0.6316175	0.7949677	0.12099962
0.61612955	0.06325722	0.62939881
0.59754564	0.5566509	0.60504131
0.11423165	0.31270837	0.59834584
0.11951332	0.81511747	0.61191611
0.11645741	0.05532047	0.14348389
0.1007679	0.55908816	0.11004364
0.60784722	0.3035312	0.11565757
0.63876712	0.79374685	0.11604146
0.61172344	0.06270745	0.62008503
0.59399766	0.55898431	0.59511573
0.11413476	0.30995147	0.60316502
0.11967529	0.81234181	0.62620938
0.12346689	0.05979961	0.14613451
0.1024148	0.56105342	0.12681415
0.61026893	0.30859564	0.11392843
0.64119322	0.79699785	0.11053616
0.60855184	0.0594288	0.61686106
0.59457669	0.56034666	0.59425387
0.10570663	0.30340729	0.61133468
0.12889667	0.81432026	0.63418637
0.12903469	0.05916421	0.14323087
0.11085392	0.56251756	0.1263079
0.62169702	0.307909	0.11880589
0.63568218	0.8002353	0.11056545
0.6040344	0.05664742	0.62610247
0.59789384	0.56059118	0.60434255
0.09083531	0.30317896	0.61520797
0.13626995	0.8142626	0.62453255
0.12043114	0.05499532	0.13842099
0.11122411	0.56312782	0.11734027
0.62618655	0.30484975	0.1236007
0.62480085	0.80287369	0.11548109
0.59557635	0.05541279	0.62222083
0.60191032	0.56079501	0.6125067
0.08161085	0.31020701	0.61595509
0.13423986	0.80798502	0.61618047
0.10942131	0.05460009	0.13663393
0.10127129	0.56450076	0.11746043
0.6238266	0.30345904	0.11537398
0.62103047	0.80671969	0.11589681
0.59364398	0.05664173	0.6135792
0.60231874	0.56151787	0.61123291
0.08126422	0.31494062	0.62294162
0.13113702	0.80776336	0.62423749
0.11645702	0.06098514	0.13567575
0.09269421	0.56748115	0.12941488
0.62423171	0.30580334	0.10078398
0.63069655	0.81164278	0.11215342
0.59959668	0.05931813	0.61626113
0.6005694	0.56378298	0.60208402
0.08407263	0.31098188	0.63619237
0.1355774	0.81759984	0.63307416
0.12886014	0.06970883	0.13317193
0.09858039	0.56751859	0.13492513
0.62431467	0.31142811	0.09813387
0.6387233	0.81490043	0.11233727
0.60594226	0.06116181	0.62492125
0.59797356	0.56424428	0.5966434
0.08227216	0.30551328	0.6416312
0.14427863	0.82114564	0.63269171
0.13112403	0.07264903	0.12805324
0.11273965	0.56438621	0.12446223
0.61115435	0.31352813	0.10171423
0.63422724	0.81619182	0.12130771
0.60826054	0.0625992	0.62900171
0.60241945	0.56205052	0.59840205
0.07765827	0.30622463	0.63412986
0.14601656	0.81648275	0.62724476
0.12232461	0.06640646	0.12493607
0.1167001	0.56740859	0.11455417
0.59556356	0.3115411	0.09883126
0.62312738	0.8156465	0.12643947
0.60167915	0.06265538	0.62505904
0.60945442	0.56097122	0.60170182
0.07727367	0.3156173	0.62003034
0.13910788	0.81285315	0.62327173
0.11316751	0.06323276	0.12856655
0.10937213	0.5721867	0.11689869
0.58897029	0.30872258	0.09780504
0.6159619	0.8158655	0.11682854
0.59829368	0.05898628	0.61807537
0.61080404	0.56328008	0.59805841
0.08119531	0.32627104	0.62032151
0.13392714	0.8144689	0.62371531
0.11470724	0.06931588	0.1324855
0.1060121	0.57073827	0.12145355
0.59248072	0.30990536	0.09662443
0.62076344	0.8182271	0.1035697
0.60490682	0.05651318	0.61644806
0.60849271	0.56429741	0.59759971
0.08829277	0.32540925	0.63968616
0.13548581	0.8164406	0.62555669
0.11835271	0.07415359	0.12465815
0.11504891	0.56429454	0.11653846
0.59581415	0.31343811	0.09776065
0.62844744	0.81938962	0.10737812
0.60925868	0.05718691	0.62207199
0.61221312	0.56032336	0.60288543
0.09448913	0.3181642	0.64821724
0.13920876	0.81576873	0.62398304
0.11723046	0.07258549	0.11445883
0.12835539	0.56011072	0.10711088
0.59246841	0.31415036	0.10112463
0.62678767	0.81804505	0.1103867
0.61119526	0.05630512	0.63016719
0.61877881	0.55590119	0.60784254
0.09681106	0.32301438	0.63541505
0.14023894	0.81702656	0.61898735
0.10492219	0.06764692	0.11721745
0.13388314	0.56168739	0.10604576
0.58748544	0.31361691	0.09914592
0.61832992	0.81585777	0.09975957
0.61660557	0.055482	0.62847814
0.61852728	0.55659659	0.60884092
0.09494929	0.32974411	0.61565431
0.13862817	0.82357187	0.62013963
0.09701284	0.06557833	0.12698392
0.12849186	0.56402696	0.11121337
0.58909131	0.31569197	0.09254274
0.61733681	0.81434621	0.09247621
0.61347958	0.05955752	0.61997608
0.61154918	0.56062532	0.61005694
0.09957523	0.32654656	0.61059556
0.13507252	0.82653045	0.62865121
0.10128829	0.06928074	0.12316255
0.12189248	0.56334516	0.11244946
0.59430012	0.31827179	0.08635676
0.62651466	0.81325623	0.10474025
0.60660546	0.06284612	0.61677362
0.61646333	0.56496342	0.61202754
0.11093305	0.31914486	0.62066106
0.13014102	0.82659089	0.6314772
0.10870835	0.07508889	0.1141853
0.12121589	0.56166695	0.11253586
0.59081636	0.31766941	0.09545896
0.63454723	0.81200521	0.1128113
0.6123239	0.0616351	0.62250381
0.63616105	0.56502338	0.61040745
0.11652115	0.31621416	0.62826301
0.12724978	0.8274136	0.62642372
0.10870205	0.07228143	0.11727091
0.12469643	0.56336085	0.1199675
0.58602863	0.31281434	0.11474084
0.63007923	0.81211818	0.10879304
0.62130993	0.06148918	0.63213171
0.65086666	0.56292505	0.60767352
0.11663961	0.31957551	0.62214483
0.1263741	0.82728716	0.62060903
0.0994513	0.06794431	0.13157784
0.12263679	0.56973687	0.12761095
0.59358288	0.30945863	0.12633888
0.61450357	0.81373537	0.10151143
0.62406852	0.06600974	0.63284041
0.6483571	0.56375563	0.60834766
0.11694702	0.3232466	0.61436868
0.12422768	0.82262821	0.61597095
0.0967293	0.07184528	0.1406762
0.11082848	0.57406541	0.12565823
0.60962202	0.31028275	0.1259769
0.60495433	0.8133889	0.10304411
0.61982463	0.06831219	0.62481668
0.63923018	0.56610891	0.61088788
0.12181048	0.32148872	0.61596031
0.11880323	0.81904381	0.60990308
0.10905612	0.07904902	0.13561086
0.10168919	0.57042346	0.1181661
0.62059214	0.31140193	0.12277782
0.61316882	0.81259178	0.11046403
0.61881455	0.06531322	0.61478285
0.63450367	0.56379915	0.6131173
0.13216842	0.31604696	0.62376459
0.11645275	0.82061853	0.60351091
0.11590184	0.08128216	0.1242883
0.10311302	0.56568051	0.12077092
0.6221141	0.31038765	0.1227291
0.61838943	0.81061479	0.11733299
0.62818004	0.06484145	0.61212222
0.63270107	0.56056788	0.61500641
0.13807809	0.31438645	0.62728377
0.12120288	0.82240697	0.60000483
0.11189834	0.074669	0.11921322
0.1127531	0.56615199	0.13228203
0.62279145	0.31001912	0.12898672
0.61067012	0.80806323	0.12138406
0.63535441	0.0695059	0.61490117
0.62544171	0.5604088	0.61837895
0.13492007	0.31536252	0.61894218
0.12661413	0.818412	0.60123935
0.11409143	0.0637671	0.12548352
0.11989155	0.57269115	0.12718877
0.62894989	0.31187917	0.13236604
0.60428671	0.80712014	0.12327831
0.63098658	0.07253456	0.61054581
0.61410062	0.56195315	0.62032875
0.13276809	0.31756215	0.61008729
0.12553801	0.81188731	0.61069361
0.12085004	0.06047124	0.13147192
0.12191702	0.57803252	0.11328572
0.63733784	0.31212439	0.12621806
0.61176141	0.80700553	0.12483822
0.62282589	0.06940909	0.60546484
0.6075355	0.56105971	0.61858782
0.14013708	0.31806088	0.61442921
0.12045365	0.80918144	0.61811185
0.12483507	0.06607265	0.12449456
0.12128377	0.57479789	0.11128272
0.64178244	0.31008907	0.12226749
0.62534085	0.80666308	0.13100517
0.62384259	0.06360825	0.61004176
0.61210784	0.55942751	0.61554386
0.14903457	0.31692091	0.62264096
0.11792103	0.81248479	0.61983719
0.12792052	0.06917296	0.11240592
0.12075006	0.56854145	0.11950631
0.64234794	0.30941957	0.13196619
0.62889866	0.80683198	0.13788963
0.63581852	0.06276847	0.62112147
0.62401821	0.56229258	0.61636616
0.14760142	0.31651766	0.6249544
0.11543663	0.81590387	0.62596755
0.13061844	0.06345019	0.10975311
0.1232846	0.56983997	0.12492859
0.64372761	0.30943959	0.14731505
0.62309139	0.80816089	0.13575894
0.64520229	0.06483836	0.62734873
0.63026551	0.56761938	0.62469442
0.13750499	0.31919498	0.62317939
0.1121435	0.81606401	0.63031527
0.12913155	0.05646031	0.11994601
0.12998937	0.57610145	0.1218274
0.64740275	0.30694384	0.1449225
0.62672809	0.81074608	0.12634735
0.64131474	0.06146653	0.6218848
0.62236799	0.56803571	0.6357089
0.13625326	0.32212047	0.62462175
0.10864562	0.81829334	0.6263154
0.1262423	0.05852382	0.12733794
0.13518518	0.57599608	0.11568866
0.65006441	0.303837	0.12831763
0.63743705	0.81171322	0.12298319
0.63223872	0.05392643	0.6106051
0.61523908	0.56272072	0.6356902
0.14603664	0.322201	0.63196441
0.10544355	0.81981879	0.62451473
0.13098407	0.06850179	0.11954365
0.13381759	0.56771391	0.12081048
0.65025862	0.30288419	0.12075816
0.63055433	0.80905435	0.12999268
0.63216554	0.05096781	0.61095092
0.62411429	0.55790878	0.62970173
0.15057486	0.3187989	0.63847521
0.1023009	0.82124386	0.62905927
0.13745935	0.07045178	0.10901702
0.13375326	0.55897174	0.13565956
0.65106651	0.30304081	0.12833437
0.62164264	0.80504857	0.1298677
0.63783542	0.05583728	0.62098638
0.6289116	0.55868126	0.62922535
0.14640571	0.31515793	0.63988933
0.10379424	0.82078713	0.63352591
0.13446217	0.06555298	0.1080867
0.1443365	0.55762007	0.12783703
0.65581973	0.30411195	0.13392967
0.62798259	0.80386933	0.11598069
0.63038937	0.06033577	0.6280676
0.62581861	0.56087126	0.63505187
0.14097278	0.31732749	0.63511276
0.10593371	0.82054077	0.63224271
0.13019547	0.0653234	0.11344592
0.15700411	0.56448714	0.10897155
0.65913235	0.30660131	0.12936951
0.63326293	0.80681155	0.10841284
0.61509989	0.0585812	0.62448435
0.6251074	0.55921608	0.63434965
0.14159629	0.32318832	0.62653783
0.10608356	0.82091426	0.63042605
0.13873239	0.06912074	0.11704401
0.15160391	0.57021846	0.11024039
0.65404003	0.307182	0.12134833
0.62873387	0.80992126	0.11620842
0.61838787	0.05455725	0.62017001
0.6330579	0.55706509	0.63009864
0.14961393	0.32069205	0.61940892
0.11107667	0.82123896	0.63229106
0.1433971	0.06859484	0.12167771
0.13791494	0.56505626	0.12834123
0.65126917	0.30455063	0.11965277
0.62194356	0.80950772	0.13018087
0.63194911	0.05639487	0.62412408
0.64302322	0.56188688	0.63070722
0.15647428	0.31124837	0.61783971
0.12386646	0.82224741	0.63239817
0.13871693	0.0622717	0.12378265
0.14533762	0.55794658	0.14667532
0.65620018	0.30249481	0.12479312
0.6208252	0.80780477	0.12810737
0.63237982	0.06286397	0.6349847
0.6492223	0.56535479	0.63751575
0.14916896	0.30950871	0.61938195
0.12968153	0.82243541	0.63312103
0.1325603	0.0588148	0.12065563
0.16010397	0.5599134	0.14325973
0.65357614	0.3031076	0.13127282
0.62593108	0.80839423	0.11342895
0.62620947	0.06391954	0.63235054
0.64902533	0.56191669	0.64174413
0.14297446	0.31787812	0.61927631
0.11441297	0.82038755	0.63352892
0.12803778	0.06343983	0.12099342
0.15928453	0.56646803	0.12629476
0.63965084	0.30445293	0.13153091
0.62905485	0.80985556	0.10293491
0.62875301	0.05724676	0.61764267
0.64938672	0.55845775	0.63560462
0.15208572	0.32623356	0.61782634
0.10030165	0.81729658	0.62689739
0.12335975	0.07020912	0.12638132
0.14716365	0.56625899	0.12696594
0.62957886	0.3039354	0.12293355
0.62079477	0.80782119	0.10887263
0.6357488	0.05559127	0.60618106
0.6520352	0.56139724	0.62457973
0.15827825	0.32212073	0.6154981
0.10691261	0.81355981	0.62364079
0.12138962	0.07020233	0.12861662
0.14718511	0.55732004	0.14492288
0.6346404	0.30310543	0.12026058
0.61288562	0.80126269	0.11855705
0.63767543	0.06106824	0.61147797
0.65621602	0.56533026	0.62044651
0.15160711	0.31240089	0.61931475
0.12206168	0.80993408	0.630341
0.12236615	0.06450498	0.12935176
0.15499149	0.55038591	0.15613821
0.6417079	0.30552409	0.13016371
0.62128276	0.79969604	0.1178836
0.63233291	0.06528882	0.62101437
0.65932418	0.56325622	0.62725334
0.14135662	0.3152148	0.62172085
0.12190548	0.81153155	0.63472695
0.12310369	0.06143314	0.13587044
0.15272937	0.55691907	0.14945822
0.63550917	0.30788619	0.12565142
0.62918714	0.80541996	0.11097959
0.628692	0.06244624	0.62177654
0.65581327	0.55765331	0.63699166
0.13584854	0.325801	0.61492414
0.11552626	0.81713293	0.62656494
0.11905469	0.06228327	0.14360954
0.14155921	0.5636651	0.13212992
0.62045127	0.30493093	0.1098016
0.62304112	0.80763087	0.11036356
0.63503279	0.05876575	0.61566598
0.64694403	0.55810239	0.63626517
0.13331469	0.32505662	0.60888562
0.11499095	0.81477375	0.61615695
0.11556124	0.06222551	0.13767486
0.13070606	0.55714061	0.12212012
0.61668841	0.30297327	0.10876613
0.60897106	0.80383016	0.12304422
0.64391048	0.05922284	0.61627844
0.64394726	0.56366485	0.62775705
0.13123717	0.31645034	0.61075512
0.12066204	0.81145849	0.61516318
0.12222599	0.05806647	0.12148403
0.12601472	0.54949751	0.12774905
0.62580176	0.30580649	0.11773075
0.6048434	0.80282037	0.13687433
0.64142998	0.06071569	0.62657117
0.64726374	0.56781264	0.62981688
0.13122523	0.3121043	0.62157604
0.12494416	0.81657652	0.61682877
0.12651873	0.05383492	0.1113521
0.12370329	0.55182314	0.13392737
0.63423589	0.31016894	0.12101031
0.61650836	0.80680621	0.13571865
0.63163175	0.05925267	0.62871704
0.65077928	0.56499436	0.64250092
0.1345219	0.31363245	0.63150805
0.11698033	0.82263699	0.61782384
0.11687813	0.05333125	0.11249824
0.11696795	0.56050905	0.12537271
0.62596133	0.31213784	0.1191723
0.62826221	0.81007943	0.13048722
0.6295553	0.05939313	0.62147687
0.64993724	0.560415	0.65005116
0.13962354	0.315123	0.63231654
0.11393718	0.81863755	0.61371185
0.10577414	0.05565237	0.11510023
0.10859995	0.56398626	0.10831488
0.61267582	0.31200416	0.11688313
0.62573265	0.80694668	0.13171792
0.62854869	0.06489165	0.62092459
0.64027077	0.56018506	0.63642632
0.13576755	0.31097093	0.62868512
0.13901946	0.8111133	0.60700801
0.11569716	0.05637715	0.11024135
0.10664283	0.55794489	0.10658451
0.61085278	0.31276222	0.11519864
0.61993565	0.80250719	0.1379964
0.62204182	0.06784686	0.63067383
0.62582611	0.56325115	0.61810117
0.12997678	0.30319432	0.63008344
0.16238216	0.81083565	0.60611019
0.13396246	0.05294238	0.10292468
0.11180752	0.55338324	0.12388587
0.61765241	0.31491325	0.11106405
0.62025849	0.80530512	0.14153333
0.60847732	0.06331921	0.63804451
0.62164005	0.55679041	0.61767183
0.13322116	0.29984237	0.63568736
0.16036118	0.81629852	0.61232043
0.13604346	0.05058046	0.10394511
0.11507929	0.55742247	0.13942445
0.61895291	0.31626011	0.1080057
0.62235922	0.81177488	0.14021368
0.59676125	0.05941385	0.62644245
0.62782006	0.55234447	0.6306231
0.1365277	0.3048924	0.63748852
0.15008789	0.81488793	0.62016015
0.12788242	0.05292063	0.11304862
0.10807333	0.56371068	0.13065291
0.61595404	0.31510918	0.11444818
0.62092622	0.81553922	0.13999839
0.59985406	0.06307963	0.61030053
0.62331459	0.55761741	0.63258108
0.124993	0.31087715	0.63556819
0.15190561	0.80698313	0.62092025
0.12585312	0.05572562	0.12316018
0.10512227	0.56437587	0.11371632
0.61753801	0.31258638	0.12823499
0.62570366	0.81171327	0.14431056
0.61535595	0.06855938	0.61130603
0.60819949	0.560177	0.6244524
0.11331504	0.31037619	0.63111957
0.16153616	0.8047646	0.61759615
0.13432959	0.05721588	0.11843476
0.10953508	0.5593818	0.11800322
0.62858626	0.3119202	0.13983111
0.63494959	0.80708193	0.14852885
0.62277617	0.06749808	0.62271577
0.60046048	0.55797471	0.61338546
0.11660844	0.30703119	0.62700093
0.15958153	0.80943815	0.62125283
0.14070182	0.05943442	0.1144816
0.11162604	0.55735649	0.12693172
0.64282167	0.31167106	0.13844204
0.63089985	0.80756471	0.14886784
0.61347196	0.06278246	0.62515131
0.60843188	0.55920896	0.6097664
0.11877938	0.30652693	0.62612646
0.14354178	0.81023888	0.63226187
0.13286973	0.06149262	0.1251052
0.10956	0.56315062	0.12663123
0.64473551	0.30906042	0.13493637
0.62682974	0.81104115	0.14302501
0.60680544	0.0628026	0.61379441
0.61880227	0.56681372	0.6172743
0.1064055	0.31193121	0.62897861
0.12887785	0.8069601	0.63669398
0.11912097	0.06328301	0.13165353
0.109506	0.56672306	0.12862013
0.62407313	0.30733278	0.14134787
0.63226174	0.81200896	0.13166232
0.61813352	0.0654436	0.6055448
0.61298719	0.56832306	0.6272563
0.09029063	0.31718621	0.62922487
0.13264679	0.80747036	0.6311762
0.11373523	0.06561264	0.11817459
0.11528612	0.5665616	0.13538747
0.60385777	0.30715657	0.14462458
0.63429302	0.80987284	0.12294568
0.63698175	0.06327181	0.61926341
0.59687207	0.56295757	0.62099181
0.08328961	0.31513126	0.62445841
0.14503029	0.80766531	0.62849604
0.12337389	0.07000665	0.10604972
0.12328211	0.56371361	0.13839493
0.60603902	0.30671427	0.13846403
0.63181052	0.80911347	0.12443727
0.6337702	0.05548088	0.63617035
0.59350503	0.55634355	0.6142263
0.09179639	0.31102915	0.6240495
0.14417932	0.8076472	0.63327736
0.13441328	0.07263087	0.10782232
0.12453516	0.56108287	0.13069408
0.62471526	0.30637335	0.13083778
0.63008887	0.81179136	0.12829356
0.61888164	0.05315724	0.63199021
0.61050944	0.55533935	0.62388191
0.09935333	0.31315663	0.62921188
0.12893069	0.81131718	0.63743996
0.13269373	0.07294022	0.12186221
0.11762039	0.56442279	0.12352227
0.6353635	0.30712007	0.12978004
0.63462816	0.81451101	0.12558595
0.621385	0.05709708	0.61645272
0.62316765	0.55836977	0.6393598
0.09457741	0.31944917	0.63408203
0.11796502	0.81453554	0.63713532
0.12206601	0.0743497	0.13172508
0.11686627	0.56880078	0.12925279
0.62294273	0.3085577	0.13158321
0.6405916	0.81070922	0.1201624
0.63564689	0.05630698	0.61251392
0.61705898	0.55872135	0.64237791
0.09334767	0.32162562	0.63268805
0.12147576	0.81576429	0.63187883
0.11408004	0.07532234	0.13345314
0.1258055	0.5672134	0.13900816
0.601668	0.30963416	0.13128199
0.64126882	0.80697685	0.12157788
0.63446394	0.05400226	0.62108501
0.60150041	0.55293858	0.63040351
0.10599406	0.31865375	0.62862247
0.12348146	0.81947743	0.62432381
0.11962331	0.07298565	0.13585658
0.12544584	0.56447108	0.13961938
0.59729186	0.30926955	0.12449801
0.63365318	0.81067798	0.12735534
0.6163387	0.05284304	0.63297884
0.60121424	0.5471738	0.6187578
0.110126	0.31130054	0.62873105
0.11357909	0.82539852	0.62119148
0.1241015	0.06933209	0.14246926
0.11824468	0.56451031	0.13195315
0.6145919	0.30697041	0.11098816
0.62540608	0.81443884	0.12294638
0.59997217	0.05019719	0.63288908
0.61642727	0.54925992	0.62337852
0.10543395	0.31031255	0.62883861
0.10057428	0.82923622	0.62563718
0.11992348	0.0648359	0.14740522
0.11762369	0.56646387	0.13089107
0.6243652	0.306145	0.11124099
0.62463976	0.81256336	0.10968438
0.59674028	0.04625309	0.61610317
0.62418898	0.55754101	0.63545805
0.10568138	0.31761649	0.62802943
0.09634723	0.8296873	0.63169992
0.11326931	0.06303412	0.1460182
0.12286937	0.56662823	0.13467282
0.60639949	0.31057304	0.11848824
0.63109289	0.80740206	0.10857867
0.59898388	0.04485972	0.60771631
0.61004949	0.56299686	0.63495138
0.1140426	0.32300996	0.62910584
0.10075686	0.82803599	0.63043625
0.11681687	0.06546207	0.13907213
0.12686463	0.56371492	0.13047002
0.59904594	0.31349858	0.12158579
0.63407988	0.80439776	0.11420824
0.59477345	0.04901315	0.62357262
0.59782239	0.5629778	0.62261838
0.11913498	0.31730194	0.63303976
0.1074921	0.82545369	0.62365357
0.12454392	0.06768829	0.13583887
0.12198621	0.56112816	0.12319137
0.61266874	0.31272311	0.116251
0.62330631	0.8054172	0.11624406
0.59175957	0.05691639	0.6408941
0.60511539	0.56114663	0.61005043
0.11859784	0.31336464	0.63627345
0.10490392	0.82423639	0.61899599
0.12735895	0.06724381	0.13263925
0.11751616	0.56147739	0.12198853
0.62055368	0.31200502	0.10703599
0.61620581	0.80496427	0.11420288
0.60266207	0.06364702	0.64152614
0.61573289	0.56332361	0.61057925
0.11844199	0.31929066	0.63022624
0.09406084	0.82471872	0.61921277
0.12511366	0.06489869	0.12965884
0.12028524	0.56475768	0.1221069
0.60761276	0.30966406	0.10595579
0.62093883	0.79926474	0.11512906
0.61953171	0.06621188	0.63373875
0.61229734	0.56774217	0.62399452
0.12308781	0.33116666	0.61963178
0.09332626	0.82292626	0.61887007
0.12173945	0.06186333	0.12146325
0.12410092	0.56655122	0.12154349
0.59200275	0.30504514	0.11549448
0.62964159	0.79732483	0.11993469
0.62527305	0.06600092	0.63309095
0.60028959	0.56781069	0.63172426
0.12641301	0.33260973	0.61679878
0.11239868	0.82230342	0.61841298
0.11868904	0.05968395	0.1148964
0.12006206	0.56527084	0.12275168
0.58970642	0.30554433	0.12362801
0.62823553	0.80200038	0.12229961
0.62055923	0.06715386	0.6414408
0.60063171	0.5629114	0.62120957
0.11977643	0.3215589	0.62083144
0.13262993	0.82002115	0.62403394
0.12082452	0.05790316	0.11805535
0.11346455	0.56318642	0.12078898
0.60365359	0.30937031	0.1221312
0.61254655	0.80768613	0.11610888
0.60823117	0.06826888	0.64238197
0.61899115	0.56006461	0.6020938
0.10670526	0.31157129	0.61706881
0.13705865	0.81561593	0.63163599
0.12219813	0.05706329	0.12712898
0.11365627	0.56062138	0.11823928
0.62148826	0.31020857	0.11466777
0.60458127	0.81204801	0.11260654
0.6039877	0.06466725	0.63191136
0.62474588	0.56532961	0.59741339
0.09598546	0.31402023	0.6064952
0.12493006	0.81679314	0.63299969
0.11803203	0.05707674	0.12938604
0.11647049	0.56019013	0.12140179
0.61573387	0.31072548	0.11255428
0.61596438	0.81380876	0.1157033
0.61357163	0.06028752	0.6273839
0.61978827	0.57312447	0.61023408
0.09195924	0.32142335	0.60219868
0.10881845	0.81751138	0.63151424
0.11157234	0.05913977	0.1247647
0.11075328	0.56262357	0.12547828
0.59772023	0.31367427	0.12181119
0.6158141	0.81376671	0.12348439
0.62581502	0.06328182	0.63453598
0.62019071	0.57139331	0.62333643
0.09347518	0.31908505	0.60816031
0.11372006	0.81210036	0.62823199
0.1147022	0.06022384	0.12362864
0.09447442	0.56662381	0.12467411
0.5996494	0.31455081	0.13375783
0.60587718	0.81434769	0.13056817
0.63273694	0.07022118	0.64297822
0.6184692	0.56252829	0.61598673
0.09675413	0.30953268	0.61624403
0.127528	0.80675923	0.6225149
0.11877676	0.05780141	0.12545522
0.08747621	0.57032845	0.11751281
0.61519854	0.30947233	0.13364682
0.60133498	0.81530032	0.12827152
0.63518611	0.07300036	0.64240374
0.6134064	0.55962244	0.60877547
0.10639103	0.30475405	0.6179556
0.12686621	0.8096772	0.61476287
0.1148694	0.05771418	0.12731735
0.09765897	0.5707802	0.11328251
0.62338755	0.30084289	0.12582618
0.60544347	0.81227087	0.11938894
0.63591956	0.06746667	0.63274586
0.61011163	0.56394363	0.62066402
0.11804495	0.30976687	0.61580579
0.11484072	0.81484375	0.60955586
0.10952341	0.06176293	0.12661603
0.10410579	0.56920534	0.11128932
0.61784888	0.29846907	0.12731413
0.6151835	0.80871086	0.12212576
0.6411682	0.06275007	0.61978696
0.60581374	0.56675401	0.62716702
0.12243718	0.31671707	0.62198096
0.10959199	0.81641622	0.61207213
0.11107281	0.06669897	0.12605434
0.09378298	0.56754491	0.10602093
0.60989792	0.30544547	0.14192271
0.61813064	0.80536705	0.12779063
0.64563158	0.06260463	0.61530103
0.6011606	0.56306731	0.62363504
0.12472122	0.31845376	0.63493287
0.12168376	0.81584307	0.62106082
0.1146696	0.0664854	0.12805403
0.08789905	0.56445225	0.09675033
0.61499305	0.31268864	0.14787658
0.61228238	0.80156181	0.12600844
0.63389975	0.06006109	0.62179348
0.60104513	0.55738083	0.62382839
0.13297051	0.31476457	0.63807412
0.13519792	0.81591983	0.62224631
0.11677256	0.0627959	0.12954201
0.10507312	0.56316758	0.09268968
0.62851426	0.31200266	0.13993087
0.61028717	0.79903015	0.1264844
0.6229699	0.05355284	0.62836276
0.60529516	0.55626879	0.62841458
0.13932219	0.31395517	0.62337397
0.13303108	0.81743408	0.61758734
0.11700377	0.06409516	0.12543063
0.12913558	0.5639763	0.09805538
0.62516887	0.30714578	0.12969381
0.61529023	0.80106099	0.13133808
0.62870291	0.04924056	0.62129812
0.60349542	0.55766918	0.63064603
0.13693483	0.31805793	0.60708628
0.11839738	0.81599014	0.61131616
0.11681081	0.07109586	0.1202503
0.1280123	0.56283901	0.11072589
0.61193115	0.30762083	0.12692232
0.62804644	0.8027086	0.13282499
0.63576969	0.05268152	0.60454773
0.60433338	0.55867659	0.62659854
0.13619448	0.32078777	0.60798619
0.11052886	0.81252549	0.60501281
0.11746975	0.07259737	0.12353417
0.11635525	0.56015558	0.11225484
0.6141018	0.30692354	0.12846828
0.63627735	0.80098244	0.12866398
0.63582855	0.05618609	0.59953049
0.61461772	0.55638448	0.61970638
0.14230589	0.31771522	0.62034905
0.11789393	0.81467873	0.60283301
0.11945302	0.06835094	0.13311905
0.11733223	0.55873646	0.10748127
0.62859225	0.30157304	0.1316327
0.63077332	0.79929355	0.12083585
0.63347897	0.05677385	0.61377308
0.62717875	0.55301214	0.61740672
0.148667	0.31483317	0.62959798
0.12693215	0.81971592	0.59799199
0.12344301	0.06765891	0.13220736
0.13140872	0.56033736	0.10868467
0.64209892	0.29860698	0.12553366
0.62219448	0.80047336	0.11540534
0.62985254	0.05635882	0.61640057
0.63448153	0.55546607	0.62378705
0.14513537	0.31573411	0.62678593
0.12122301	0.82332775	0.59293926
0.12640144	0.07110327	0.12403557
0.13643532	0.56185874	0.11452531
0.64249946	0.29648667	0.11998478
0.62126468	0.80436933	0.1133067
0.62884716	0.0574885	0.6124681
0.6358815	0.56154336	0.63262087
0.13311311	0.31886497	0.61935431
0.10934423	0.82354262	0.5978987
0.12240685	0.07329944	0.12310013
0.12601164	0.56129263	0.12104749
0.63069327	0.29444888	0.11844014
0.62326279	0.80663483	0.11335905
0.63197453	0.06087941	0.61546702
0.64114462	0.56181291	0.63309338
0.12600136	0.31857157	0.62102687
0.11485145	0.82186903	0.60720351
0.11746494	0.07013186	0.12665763
0.1177892	0.56097476	0.12377177
0.63147543	0.29678158	0.11509781
0.62240816	0.80453426	0.11326245
0.63355735	0.06342219	0.62502658
0.64616818	0.55478585	0.62362736
0.130646	0.31443003	0.63052562
0.1282082	0.81995903	0.60695768
0.12420186	0.06164041	0.12575714
0.13064869	0.56303759	0.12351084
0.64391832	0.30297858	0.1125386
0.61917072	0.80216641	0.11374102
0.62963808	0.06257315	0.63518437
0.64456761	0.55013962	0.61390639
0.13463153	0.3131519	0.6302555
0.12361916	0.81944837	0.60554266
0.13073428	0.05482026	0.11873146
0.14978466	0.5640424	0.12477307
0.6505976	0.30763128	0.1193118
0.61656612	0.80483317	0.11567204
0.62770855	0.05921444	0.63308393
0.64257926	0.55502	0.61231091
0.13459401	0.31679644	0.61808588
0.11477441	0.82025789	0.60850094
0.12225914	0.05629286	0.11530751
0.14927035	0.56083552	0.13042433
0.64636615	0.30865311	0.12539198
0.61669828	0.80919733	0.11850011
0.62948038	0.05811125	0.61921919
0.64503591	0.56184754	0.62021106
0.13590593	0.31893248	0.61284554
0.12194004	0.82030362	0.61497802
0.11822216	0.06298397	0.12297799
0.13363169	0.5571127	0.13248117
0.64660976	0.30920586	0.12077736
0.62195156	0.80968863	0.11688349
0.62868409	0.06210449	0.61101348
0.64957961	0.56086904	0.62674179
0.1388151	0.31853954	0.6240261
0.12761134	0.81971091	0.6213481
0.12800134	0.06142185	0.13490123
0.12672182	0.55559243	0.12988244
0.65384511	0.31095763	0.11577384
0.62849501	0.8079981	0.11052889
0.62659132	0.06548805	0.61569355
0.64848193	0.55740017	0.62452782
0.13847218	0.3175739	0.63191312
0.12856803	0.81633534	0.62275902
0.14143468	0.05318987	0.13462823
0.14029473	0.55718128	0.13090111
0.65782263	0.31138895	0.12017339
0.62404943	0.80786504	0.10329846
0.6187274	0.06431125	0.62586622
0.64143669	0.56078738	0.61968715
0.13230431	0.31964586	0.62064657
0.1354291	0.81203542	0.62257952
0.14628636	0.05363743	0.12434974
0.15617471	0.5605399	0.13587038
0.6544738	0.30903371	0.12633834
0.61438194	0.81067125	0.10052173
0.61024859	0.06271217	0.63266102
0.63637919	0.56735	0.62158058
0.12712324	0.32293969	0.60563565
0.1439312	0.8123011	0.62704401
0.14248638	0.06106233	0.12549798
0.15274302	0.56252495	0.13868343
0.6493675	0.30743471	0.12416473
0.61039554	0.8113369	0.1072454
0.61820418	0.06647303	0.62966949
0.63819884	0.56857513	0.62578826
0.13111363	0.32226785	0.61111733
0.14675846	0.8158324	0.63528681
0.13810885	0.06335336	0.13422388
0.13931945	0.56238849	0.13831019
0.64759207	0.30842499	0.1166603
0.61559603	0.80801173	0.11942397
0.62556859	0.06936264	0.62353006
0.64228987	0.56416978	0.62049474
0.13329699	0.3156628	0.63812468
0.13747482	0.81979047	0.63933721
0.1367271	0.05703477	0.13069916
0.14221065	0.56381006	0.14089097
0.64753643	0.31092263	0.11159992
0.62431829	0.80466504	0.12303384
0.61679024	0.06722865	0.62247804
0.63520845	0.55998093	0.60903747
0.13051731	0.31274502	0.65488313
0.12379774	0.82041966	0.63750127
0.13876375	0.05302271	0.12026445
0.15412188	0.56554459	0.13897889
0.6506229	0.31279771	0.11728746
0.62922924	0.80523447	0.12305574
0.60011885	0.06630686	0.62475399
0.62270884	0.56170941	0.61213476
0.13125968	0.31814896	0.64626975
0.11658606	0.81820603	0.637032
0.14040754	0.05843843	0.11073855
0.15222792	0.5653898	0.13180471
0.65431126	0.31146904	0.12457442
0.62963427	0.80912662	0.1324179
0.59486034	0.06681014	0.62349715
0.6228904	0.56813473	0.62561874
0.13500319	0.32113289	0.6262042
0.11671874	0.81833199	0.64102832
0.13212812	0.06682158	0.10886837
0.13969298	0.5641701	0.13067244
0.65023467	0.30874997	0.12507551
0.62900384	0.81119759	0.14429062
0.60603555	0.06423774	0.61967444
0.63690172	0.57285825	0.6280374
0.13365717	0.31512889	0.61752995
0.11726152	0.82024254	0.63870031
0.12296441	0.06937103	0.1164825
0.13126889	0.56222649	0.13280526
0.63507295	0.30875936	0.11785615
0.62680346	0.80876987	0.14673036
0.62066951	0.06232001	0.62065162
0.64619388	0.56983437	0.62575811
0.13040052	0.31053837	0.62945723
0.11318318	0.81900872	0.6319265
0.12725856	0.06477182	0.12019626
0.13449833	0.56206938	0.12669528
0.62523667	0.31025431	0.10712845
0.61975154	0.80759997	0.13612668
0.62809244	0.06427531	0.62577201
0.63595649	0.56541794	0.6312912
0.12803959	0.3150662	0.64278709
0.11309139	0.81747298	0.63511359
0.1408878	0.06082882	0.11434528
0.14218983	0.56423249	0.11767531
0.63165685	0.30824629	0.10882512
0.61135568	0.80970168	0.13133253
0.6252739	0.06560114	0.62561072
0.62036196	0.56652564	0.64363529
0.12136609	0.32237558	0.63637563
0.12217112	0.819294	0.63930198
0.14206697	0.0639381	0.10501228
0.14164485	0.56645287	0.11767041
0.63960603	0.30444219	0.12105171
0.60928895	0.80950125	0.1396101
0.61880326	0.06403692	0.61852959
0.62249275	0.5692154	0.64999323
0.11889739	0.3235134	0.62397581
0.12668464	0.82351247	0.63663909
0.12906889	0.07164561	0.104867
0.13914265	0.56750905	0.12038002
0.62928016	0.3039416	0.13220298
0.61259823	0.80887972	0.15001855
0.62132229	0.06153961	0.61613058
0.62949148	0.56730785	0.63862703
0.12512679	0.31887079	0.63150975
0.12421421	0.82437612	0.63080269
0.12122401	0.07708674	0.11141832
0.1415553	0.56818362	0.11866639
0.61759544	0.30810321	0.13428088
0.61757936	0.80829341	0.1529748
0.63326908	0.06068506	0.61935989
0.62549894	0.56237615	0.62370561
0.13621435	0.31725763	0.64072831
0.12803657	0.82190826	0.62937463
0.1237806	0.0744963	0.11381371
0.14525377	0.56790926	0.11453701
0.62274015	0.31044501	0.13543869
0.62354353	0.80845869	0.15043273
0.64152131	0.06352309	0.62082553
0.61168072	0.5604209	0.62676929
0.14260946	0.32069479	0.63818793
0.13288075	0.82096746	0.63231741
0.12172958	0.06936026	0.11128224
0.14217527	0.56562383	0.11755055
0.63716711	0.30691247	0.14206579
0.63152087	0.80842109	0.14913456
0.64025948	0.06608657	0.61812919
0.6057869	0.56461633	0.63801817
0.14102274	0.32339152	0.63152893
0.1255287	0.81786048	0.62976266
0.10937676	0.06937275	0.11320232
0.13231865	0.56363551	0.13129259
0.64107762	0.30384529	0.15054611
0.63814389	0.80704962	0.1434311
0.64011653	0.06318742	0.61313114
0.61767386	0.56873049	0.63884659
0.13643784	0.32153425	0.62913442
0.10999331	0.81443745	0.61598366
0.09971906	0.07104118	0.12510746
0.12446792	0.56386617	0.14631925
0.63117998	0.30585386	0.15015534
0.64492193	0.80570321	0.13152457
0.64514419	0.05715096	0.61192262
0.63814186	0.56286537	0.63141059
0.13601729	0.31956397	0.62893487
0.10243545	0.81318249	0.60723247
0.09691991	0.06648188	0.13681007
0.12386413	0.56518841	0.14810919
0.61989212	0.30821651	0.13984301
0.65062438	0.80330901	0.11941048
0.64256533	0.05576141	0.61686877
0.63932978	0.5566182	0.62636824
0.1341696	0.32280079	0.62212383
0.11347891	0.81532705	0.61141539
0.10371764	0.05984301	0.13571482
0.12191946	0.56529221	0.13468482
0.62120645	0.30370678	0.13244579
0.64576669	0.79923468	0.11543733
0.63426699	0.05942701	0.62303358
0.6215212	0.56236798	0.62756638
0.12958162	0.32377022	0.60864516
0.12806596	0.81754356	0.6154588
0.12068282	0.05706264	0.12646052
0.11782996	0.5639827	0.13202375
0.62527273	0.30058564	0.13521614
0.62977974	0.79697971	0.11816436
0.63550185	0.06270253	0.62252855
0.61056409	0.56062145	0.64029856
0.12260157	0.31885213	0.60097654
0.12946905	0.81711079	0.60731976
0.128985	0.05899002	0.12515862
0.11461517	0.56260026	0.14304442
0.62207204	0.30934553	0.135154
0.63440197	0.79963813	0.11972668
0.64004856	0.05909407	0.6165593
0.62684283	0.5517062	0.64700039
0.11983294	0.31540014	0.61100559
0.12345501	0.8148729	0.60229189
0.1224129	0.06067219	0.13415616
0.11659863	0.56175237	0.14561136
0.60993784	0.31521912	0.1256919
0.64231791	0.80732285	0.11763568
0.63264494	0.05397422	0.61660457
0.64291664	0.55049639	0.63708851
0.12386731	0.31595373	0.62735145
0.1335122	0.81334396	0.61429308
0.12208297	0.05899402	0.1402608
0.12134845	0.56095246	0.13668472
0.59727483	0.30532481	0.12220575
0.63057942	0.81211434	0.11716075
0.62259495	0.05550872	0.62901683
0.63686859	0.55353503	0.62736536
0.12645593	0.31594282	0.63180957
0.14693785	0.81473067	0.62594731
0.13271911	0.05601452	0.13820223
0.12071082	0.55787668	0.12444206
0.59635865	0.30095201	0.12951223
0.61831102	0.80998846	0.12102816
0.6236565	0.06349583	0.64121913
0.62061128	0.55494351	0.63292271
0.12040306	0.3142668	0.62967254
0.1412581	0.81571397	0.6267089
0.12757342	0.05431812	0.13135944
0.11642373	0.55503385	0.12082054
0.60643853	0.31041427	0.13573668
0.62402921	0.80658452	0.1177287
0.63032497	0.06528259	0.63946002
0.61467853	0.55488985	0.63920171
0.11523288	0.31281875	0.63070526
0.1208848	0.8157806	0.62418724
0.1116902	0.054606	0.12698695
0.11168107	0.55619332	0.12585533
0.60856688	0.31610894	0.13174935
0.63807918	0.80670849	0.10970061
0.6269379	0.06307008	0.62879505
0.61954269	0.5544679	0.63300214
0.11605748	0.31106118	0.63323709
0.11323408	0.8136997	0.623852
0.10916227	0.05455598	0.1282776
0.10679045	0.55933212	0.12431049
0.59899289	0.30781765	0.11546456
0.6456776	0.80614164	0.10952159
0.61472577	0.06354534	0.63003513
0.620894	0.55587956	0.62132929
0.11437664	0.30923482	0.62956285
0.12218821	0.81158614	0.62563492
0.1151618	0.05356146	0.12902299
0.10372891	0.55992458	0.11731776
0.59332885	0.29811756	0.10570767
0.63073796	0.80610038	0.11589538
0.60654549	0.06183805	0.63747468
0.61560531	0.55888477	0.61888851
0.10546631	0.30945087	0.62297314
0.13041368	0.81255398	0.62499102
0.11672821	0.05389622	0.1242962
0.10422933	0.55671962	0.12033148
0.60286384	0.29809399	0.11255929
0.6069958	0.81138132	0.11802061
0.61036366	0.05440331	0.63937507
0.61263174	0.56297265	0.62613552
0.09733262	0.31153627	0.61795976
0.12781124	0.81469141	0.62276375
0.11917586	0.05753419	0.1184549
0.104269	0.55487962	0.12564906
0.61263338	0.30812621	0.12254052
0.59627836	0.80955967	0.12079845
0.61551207	0.04979106	0.63289348
0.61655002	0.56642852	0.63655938
0.09554473	0.31140539	0.61751479
0.11935705	0.81566276	0.62079621
0.1312985	0.06206696	0.12230179
0.10231885	0.55689722	0.1222829
0.601383	0.31577509	0.12143573
0.60627891	0.80273882	0.12638551
0.60974768	0.05175299	0.62803004
0.61991114	0.56603016	0.63220253
0.09532056	0.31037225	0.62033878
0.12143522	0.81401983	0.62430561
0.1439304	0.0621529	0.1338267
0.10203229	0.55818958	0.11579481
0.58271332	0.31258614	0.11093499
0.62070723	0.80496436	0.12496049
0.59784183	0.05794593	0.63075831
0.61599939	0.56259537	0.61347481
0.09018446	0.3122143	0.62453589
0.13507005	0.81431089	0.63464321
0.1473504	0.05780684	0.13503808
0.10679368	0.55820203	0.11852942
0.59584981	0.30122113	0.10892324
0.6253812	0.81067217	0.11887564
0.5962262	0.06199249	0.63725068
0.60877039	0.5626719	0.60670333
0.08753286	0.31602092	0.62628387
0.1407487	0.81892804	0.64252032
0.13675772	0.05245155	0.12257468
0.11041542	0.55741847	0.12462965
0.61724628	0.29305389	0.1247378
0.61814592	0.81096058	0.11896965
0.60882294	0.06300854	0.63787457
0.60646412	0.56671273	0.61467155
0.09244719	0.31821983	0.62330758
0.13102653	0.82220096	0.64087357
0.12119142	0.05021322	0.12221115
0.10781514	0.55669477	0.12212861
0.61836426	0.2960388	0.13557636
0.61314714	0.80227795	0.12267908
0.61330286	0.06309132	0.6334883
0.60660113	0.57058573	0.6156538
0.10198106	0.31692819	0.62516251
0.12723024	0.81874941	0.63132618
0.11532572	0.05304042	0.13354902
0.10478938	0.55821325	0.11675054
0.61139129	0.30209781	0.11853995
0.62756077	0.79411662	0.12525295
0.60018884	0.06618987	0.63011948
0.60592799	0.57095339	0.60496845
0.10149109	0.31487934	0.63096539
0.13451759	0.81557152	0.62385042
0.1129875	0.058434	0.13293229
0.10769621	0.56088007	0.11748555
0.61592789	0.30144616	0.10122059
0.64834165	0.79290573	0.12859947
0.58926865	0.07077458	0.62595965
0.60380213	0.56950636	0.59489555
0.08047745	0.31550187	0.62613481
0.13796747	0.81624505	0.62391462
0.11604487	0.06073655	0.12279928
0.11754413	0.56066241	0.11945324
0.6307133	0.29780399	0.11121854
0.64763645	0.79929782	0.13280015
0.59911803	0.07483759	0.62200131
0.60249477	0.56938908	0.59626249
0.06942152	0.31882613	0.61918674
0.12657564	0.81641546	0.62735585
0.12602098	0.06247586	0.11932318
0.12138329	0.55886131	0.11729778
0.63228777	0.29967119	0.12643917
0.62602364	0.8088645	0.12765436
0.61188411	0.07447439	0.62271762
0.60408153	0.56952149	0.60923876
0.08904835	0.32150131	0.62373202
0.11243302	0.81349535	0.62526165
0.13157131	0.06497156	0.13035674
0.11951625	0.56007665	0.1107286
0.61909891	0.30848973	0.1273532
0.62481219	0.81486553	0.11981742
0.61101855	0.06933855	0.6288788
0.60682439	0.56669335	0.61292978
0.10375013	0.32057759	0.63413234
0.11293468	0.81461147	0.61867421
0.12916219	0.06513775	0.14381901
0.11697601	0.56416896	0.10685192
0.61662767	0.30885304	0.11607032
0.65116121	0.81345154	0.12514785
0.60768583	0.06684834	0.63704258
0.60833603	0.56238278	0.59899798
0.09961264	0.32244888	0.63977404
0.12183504	0.82044297	0.61621008
0.11799781	0.06434619	0.14638466
0.117558	0.56442809	0.10984213
0.63012948	0.30586704	0.10729328
0.65625848	0.80970156	0.1331805
0.61254963	0.06865486	0.63568759
0.60566244	0.5599158	0.59019602
0.10018889	0.3274276	0.62718498
0.12309745	0.82314029	0.61652596
0.11599197	0.067551	0.13937001
0.12730534	0.56014287	0.11135443
0.63999067	0.31067603	0.1123417
0.63205741	0.81088414	0.13063067
0.62305929	0.06928016	0.63153119
0.60386697	0.56047352	0.60649
0.12015824	0.32748887	0.61361282
0.11872616	0.81878122	0.61388631
0.12036877	0.07141183	0.12906871
0.13525975	0.55869777	0.10392157
0.63636065	0.31740454	0.12382033
0.6119156	0.81660652	0.11426545
0.63052096	0.06303325	0.63809072
0.60524835	0.56524665	0.62583456
0.14062707	0.32192524	0.61287679
0.11740003	0.81566478	0.60294822
0.12113508	0.07135203	0.12472446
0.13324485	0.5640862	0.09884525
0.62055838	0.31749962	0.12607062
0.61811451	0.81490332	0.09451871
0.63367505	0.05733237	0.63774278
0.60981783	0.567427	0.6238551
0.12832228	0.31608231	0.6242295
0.1196828	0.81667221	0.58967816
0.11896376	0.06789021	0.12876445
0.12587314	0.56687824	0.10582301
0.61141945	0.31377228	0.11581687
0.63497035	0.80835542	0.0866323
0.62995734	0.05919303	0.6227154
0.6121528	0.56594582	0.60427416
0.10386193	0.31654639	0.63283075
0.12198877	0.81560419	0.58881779
0.11563367	0.0663772	0.13401474
0.12309105	0.56449197	0.12117912
0.62357962	0.31257937	0.11206909
0.6374063	0.81064667	0.09866106
0.61833284	0.06431464	0.60796056
0.6118141	0.56280807	0.59777384
0.11365807	0.31959113	0.62947762
0.12054417	0.80973181	0.59903354
0.12026449	0.06914523	0.13883842
0.12975893	0.56589031	0.12747986
0.63171577	0.31651214	0.12483241
0.62646999	0.81426542	0.1153288
0.61143862	0.06383818	0.60766513
0.61392198	0.56112681	0.60957801
0.13956439	0.31679539	0.61447273
0.11388773	0.8073949	0.61144878
0.12484972	0.07041814	0.13557956
0.13760292	0.5728927	0.12495443
0.62577607	0.32019135	0.14001206
0.61945081	0.80920846	0.10941206
0.61862415	0.06098777	0.61533294
0.62738072	0.56070496	0.6174231
0.15188879	0.31012312	0.60592741
0.1123069	0.81257645	0.62104239
0.11784229	0.06706749	0.12497056
0.13537216	0.57736128	0.1234001
0.62483405	0.31861761	0.13324805
0.61872149	0.8026732	0.08700614
0.62972669	0.06121064	0.61607055
0.6398773	0.56150651	0.60805487
0.14610117	0.30800238	0.61744277
0.11701951	0.81833153	0.62609566
0.11316202	0.06503573	0.11656369
0.12547721	0.57518417	0.12534407
0.63181519	0.31231305	0.12492139
0.61693243	0.80536926	0.08811667
0.62547848	0.06346193	0.60741888
0.63380788	0.56010728	0.59908549
0.13490683	0.31499895	0.62324748
0.11923429	0.81850859	0.63220505
0.11886156	0.06863337	0.1228765
0.12209341	0.56958965	0.12403208
0.64053572	0.3083851	0.13261864
0.60939392	0.81250846	0.10904437
0.61629924	0.06338855	0.60162738
0.62751112	0.55415866	0.60678654
0.12474995	0.32160425	0.61391768
0.11438777	0.81492397	0.63860076
0.12462774	0.07228131	0.12468265
0.1252426	0.56853811	0.12329735
0.64175397	0.30995055	0.13810058
0.60132444	0.80783369	0.12280135
0.62319694	0.06142115	0.60895716
0.64107788	0.55010387	0.63136994
0.12268511	0.31679203	0.60364275
0.11087409	0.81425627	0.63983961
0.12539975	0.06965939	0.11392135
0.1278414	0.57067332	0.1269623
0.63607588	0.30960588	0.13295964
0.60090189	0.79809978	0.12038716
0.63590658	0.06136585	0.61791357
0.65574683	0.55205001	0.65396809
0.13021548	0.31190833	0.60727783
0.11409859	0.82152793	0.63921161
0.12423754	0.06287571	0.11025815
0.12704943	0.56948017	0.12450797
0.63288163	0.31012305	0.12305666
0.61113321	0.80010657	0.11320374
0.63000502	0.06123702	0.61215639
0.65227896	0.55923354	0.65860501
0.13538661	0.31803126	0.62195878
0.12251568	0.82732154	0.64201006
0.12686517	0.05820944	0.12008557
0.12906534	0.56400244	0.12021426
0.63571627	0.3098712	0.11212382
0.61722368	0.80956499	0.12261283
0.61459515	0.05811471	0.60040906
0.64051825	0.5574784	0.64301297
0.12924466	0.32473321	0.63312849
0.12768455	0.82349328	0.64270573
0.13187683	0.06044971	0.12008324
0.13565124	0.55950991	0.12239208
0.64160487	0.30400109	0.10502355
0.61295488	0.81164363	0.15139813
0.61038496	0.05432893	0.59891695
0.63095261	0.54991969	0.62987417
0.12292134	0.32284822	0.6385586
0.12154535	0.81756247	0.63494512
0.13227045	0.06712211	0.10482266
0.13800391	0.56023538	0.12603771
0.64651761	0.30344338	0.10277658
0.60338777	0.80211662	0.1640383
0.61876095	0.05240674	0.61578433
0.62993797	0.54916921	0.63289789
0.13212372	0.31630758	0.64015814
0.11055895	0.8176429	0.62684709
0.12803343	0.06733184	0.09465065
0.13045709	0.56252512	0.12808087
0.64545103	0.30845322	0.10559483
0.60599465	0.79430118	0.15013769
0.62636377	0.0514495	0.62431871
0.63826556	0.55725358	0.64032533
0.1537936	0.31502091	0.63946735
0.10570498	0.82107583	0.62444133
0.12510661	0.06190553	0.09958398
0.1205813	0.55920504	0.12863379
0.63540376	0.30894658	0.11143255
0.61410469	0.79805347	0.13345988
0.62903436	0.05187758	0.61562502
0.6443929	0.56264612	0.63418081
0.16483369	0.31952693	0.64370989
0.11134976	0.82006489	0.62148554
0.12527478	0.06125154	0.10557421
0.12003655	0.55920677	0.1290824
0.62607421	0.30047329	0.11527479
0.61314889	0.80719128	0.14050987
0.63787986	0.05400619	0.60737737
0.63671844	0.56057412	0.61984979
0.15754107	0.32250797	0.64981061
0.11543663	0.81482484	0.61700315
0.12327534	0.06561297	0.10509312
0.13143941	0.5632158	0.13157427
0.63171363	0.2926545	0.11971232
0.60212644	0.80886477	0.15647764
0.6474606	0.05678378	0.61348559
0.6274025	0.55583282	0.61943097
0.15531345	0.31870794	0.64551132
0.1083003	0.81234581	0.61327421
0.11763947	0.06452536	0.09960922
0.13904972	0.56091069	0.13570176
0.64636219	0.29335137	0.13016413
0.59498712	0.79884619	0.15326145
0.64514285	0.05633982	0.6260837
0.64075334	0.55610894	0.63477191
0.15789966	0.31145789	0.63256708
0.10903875	0.81743506	0.61466605
0.11379115	0.05459635	0.09799958
0.13602902	0.55602972	0.13286898
0.64114615	0.29788216	0.14013426
0.60631886	0.79208179	0.13141055
0.63428318	0.05266627	0.63243724
0.65535735	0.56146952	0.64175031
0.16143882	0.30799638	0.62005135
0.12202396	0.82306098	0.61628259
0.11459826	0.04856158	0.10720348
0.13777868	0.55352578	0.12652878
0.62459147	0.2994492	0.1396725
0.62224423	0.79670415	0.11659862
0.63303051	0.05523378	0.62837984
0.64529407	0.56572703	0.62687077
0.15790127	0.31617141	0.61409614
0.12513742	0.82067413	0.61501566
0.11647341	0.05355656	0.12277081
0.14143324	0.55453017	0.13057684
0.62550685	0.29762064	0.13723342
0.62298221	0.80636086	0.12027848
0.64404381	0.06343921	0.62107555
0.62516058	0.56606029	0.61070473
0.14908136	0.32596978	0.61966748
0.11493265	0.81400822	0.61162264
0.1181941	0.05735838	0.13409167
0.13927817	0.55695189	0.14229074
0.64059789	0.29713058	0.13935009
0.61817935	0.8096979	0.12480825
0.65394823	0.06401148	0.62598996
0.6102852	0.56198729	0.62141386
0.14454839	0.32392164	0.62507868
0.10704469	0.81089969	0.61234131
0.11982237	0.05436681	0.13129981
0.13854983	0.55738353	0.14369972
0.6496859	0.30024926	0.13976846
0.63134426	0.80264679	0.11972882
0.65049902	0.06120294	0.64177084
0.60928741	0.55844562	0.63475786
0.14632604	0.31813733	0.62372857
0.11438258	0.81582387	0.61920889
0.12538593	0.05139451	0.13131852
0.13990367	0.55613079	0.13310663
0.63939425	0.30475327	0.13555531
0.64996979	0.79779658	0.10764532
0.63931221	0.06108498	0.64910519
0.61571596	0.56073634	0.62592194
0.14962946	0.3165374	0.62491583
0.12608055	0.82306192	0.62579792
0.13175983	0.05594145	0.1451408
0.14015215	0.55612487	0.12768411
0.62559792	0.30737157	0.13152141
0.65552445	0.80414102	0.10238965
0.63618762	0.06418806	0.64006921
0.61662909	0.56465091	0.60821186
0.14917798	0.32030067	0.62330739
0.13094068	0.82269836	0.62981309
0.13227735	0.06449471	0.16137365
0.13854097	0.55835656	0.1327322
0.6295976	0.30509372	0.13166618
0.64922516	0.81493629	0.11012594
0.64682335	0.06683226	0.62744931
0.60855416	0.56607722	0.61279445
0.13841414	0.32495617	0.62641744
0.12781672	0.81599156	0.63330546
0.12610852	0.0651208	0.16279459
0.13698552	0.56120564	0.13580328
0.64028066	0.30220922	0.13461895
0.64092274	0.81376756	0.11834058
0.65663768	0.06354665	0.62866812
0.60291944	0.56498521	0.63237328
0.11982856	0.32522764	0.63672121
0.1183077	0.81255652	0.63531594
0.12332274	0.05693849	0.15715665
0.13798994	0.56297528	0.12989023
0.64440961	0.30605398	0.14094241
0.63603743	0.80544836	0.11472931
0.64784564	0.05816837	0.64096853
0.6138652	0.5645572	0.64572456
0.10580051	0.31980566	0.64826356
0.1090998	0.81824247	0.62819419
0.12598957	0.05746343	0.14925698
0.13779289	0.56427491	0.1233663
0.63907099	0.31528554	0.14656521
0.63402233	0.80062624	0.10132628
0.63216439	0.05818698	0.63835974
0.6269342	0.56564228	0.64166505
0.10218903	0.31942282	0.64945053
0.10906722	0.82407091	0.61891325
0.13363961	0.06446907	0.14509039
0.13594581	0.56668788	0.12456825
0.63030834	0.31396584	0.13758163
0.62843265	0.80429512	0.09568463
0.62080158	0.06785755	0.62445073
0.62531478	0.56675122	0.63752179
0.11487559	0.32158806	0.64112192
0.11446602	0.82316275	0.62206919
0.14101457	0.06770708	0.14524635
0.1288204	0.56813659	0.12782584
0.63585668	0.3048126	0.12118438
0.62188488	0.80858215	0.11172658
0.62364434	0.07245145	0.62777425
0.60910533	0.56385542	0.64162532
0.12386026	0.32196984	0.63415884
0.11848285	0.81983274	0.62901699
0.14286578	0.06406869	0.1445206
0.11546882	0.56698838	0.1265012
0.6394931	0.30394735	0.11846155
0.62316656	0.80638738	0.13752545
0.63221412	0.07013227	0.64243218
0.60318823	0.5604037	0.64259869
0.11628691	0.32295623	0.63616286
0.11527576	0.81731506	0.62956884
0.14361331	0.06069759	0.13759413
0.10443846	0.56736987	0.12213876
0.63278833	0.3111933	0.13202915
0.63267697	0.80255781	0.13981866
0.62578102	0.06502089	0.64295993
0.61384119	0.56255849	0.62960695
0.11231611	0.32377811	0.64089365
0.11841171	0.81872648	0.62356116
0.15100024	0.06283906	0.13253152
0.10579656	0.56785637	0.11900979
0.62862829	0.31687032	0.13676817
0.6374519	0.80302219	0.12546186
0.61047312	0.06503532	0.63409203
0.6271684	0.56685974	0.61436368
0.12084932	0.31942815	0.64221345
0.12934989	0.82092077	0.61896765
0.15407161	0.06932719	0.13560196
0.11861122	0.56432561	0.11874385
0.62624166	0.31547533	0.12781346
0.63177693	0.80687341	0.12940832
0.60496445	0.0710465	0.63004
0.63308266	0.56595773	0.610284
0.13097461	0.31518536	0.63431134
0.12726566	0.8195498	0.6243959
0.1449611	0.0686062	0.14106752
0.12483852	0.56099164	0.12069757
0.6260647	0.31203872	0.12385562
0.62787785	0.80982279	0.1471906
0.60895494	0.0716434	0.62932321
0.62614084	0.56208685	0.61665346
0.12841733	0.31714949	0.62376787
0.11703501	0.81557531	0.63304562
0.13637482	0.06100998	0.133516
0.12418307	0.56168005	0.1243514
0.62758165	0.31247463	0.13249626
0.63065755	0.80662786	0.14529262
0.6050326	0.06356465	0.62898941
0.61872852	0.56139314	0.62406772
0.11383449	0.32241287	0.62577451
0.12142075	0.81889171	0.63292531
0.13672241	0.05913379	0.11516987
0.13175352	0.56565664	0.12854505
0.62651146	0.31263053	0.13284995
0.63467256	0.80640605	0.12551669
0.5948946	0.06116068	0.62237179
0.62115362	0.56511813	0.62905561
0.10276738	0.32347455	0.63673297
0.13577666	0.82313487	0.62640551
0.13725502	0.06283202	0.10630307
0.13933532	0.56758028	0.12953679
0.62312283	0.308935	0.12529897
0.63471287	0.81198119	0.11603078
0.59598831	0.06838506	0.61573135
0.62780431	0.56898032	0.63097387
0.10516183	0.31837972	0.63732934
0.13944149	0.81959966	0.62358252
0.1299567	0.06463834	0.10981802
0.13758525	0.56519613	0.12377863
0.61629828	0.30425402	0.12414027
0.63266894	0.81776672	0.13133303
0.60668498	0.07478601	0.61873713
0.62696828	0.56817217	0.62755065
0.11174603	0.31358627	0.62830837
0.13584599	0.81455474	0.63109732
0.11609901	0.06384884	0.1142534
0.13046958	0.56251858	0.11385665
0.61232298	0.30218009	0.13198725
0.62850265	0.81751095	0.14835496
0.61341648	0.07390186	0.62935309
0.61519069	0.56387924	0.61477222
0.10783992	0.31528878	0.61990321
0.13456177	0.81391553	0.63755235
0.10413727	0.06311092	0.11906546
0.12490107	0.56211063	0.10753739
0.61552699	0.304277	0.13658599
0.62675398	0.8121444	0.14507828
0.61163782	0.07231926	0.63179009
0.60648653	0.56495428	0.61196685
0.10147634	0.31821632	0.61850821
0.13967863	0.81281362	0.63099503
0.10955858	0.06438327	0.12394043
0.12502391	0.56153012	0.11453524
0.61594351	0.30925792	0.13073926
0.63723707	0.80839046	0.12312132
0.61156896	0.07540135	0.62489542
0.61359334	0.57118968	0.6235202
0.10196053	0.31170246	0.62420823
0.14595641	0.81125942	0.62663659
0.12055668	0.06536809	0.12547174
0.12890673	0.55702966	0.12796936
0.60425316	0.31252406	0.12188669
0.63574911	0.80770885	0.10920659
0.61953833	0.07204617	0.6207856
0.63193702	0.56988171	0.63652305
0.10613084	0.30886795	0.62792538
0.14317418	0.81017012	0.62397791
0.11996275	0.06506039	0.11946261
0.12990598	0.55231784	0.13123288
0.59135692	0.31037086	0.12070416
0.62025357	0.80855634	0.11999401
0.62284595	0.06572397	0.62291098
0.63123379	0.56406535	0.63764868
0.10962654	0.31643999	0.62156153
0.13448077	0.81159052	0.61866731
0.10663184	0.0635698	0.10980351
0.12866287	0.55218839	0.12640846
0.5905773	0.3089174	0.12147195
0.61145437	0.80863214	0.13632971
0.61135982	0.06739082	0.63082766
0.61731635	0.56524808	0.6324364
0.11754224	0.31883296	0.61236809
0.13182047	0.81406864	0.61289821
0.10081594	0.06206256	0.10349984
0.12881115	0.55575414	0.12898301
0.6038444	0.31328604	0.11379654
0.62172065	0.8079321	0.12835835
0.60357836	0.06632419	0.63474872
0.61620141	0.57360618	0.63280763
0.12303818	0.31340464	0.6121007
0.13725219	0.81541216	0.61194683
0.11305418	0.06192002	0.10491414
0.13103388	0.55759361	0.13259855
0.61472956	0.31697905	0.10222516
0.63959289	0.80944539	0.10850398
0.61119848	0.06185712	0.62556148
0.61966671	0.57642811	0.64180739
0.11414649	0.3081747	0.62103572
0.14117499	0.81482517	0.61505998
0.12223893	0.06312305	0.11185114
0.13203219	0.55723992	0.12999917
0.60735012	0.31569772	0.10385418
0.64872625	0.8154058	0.10993787
0.61662527	0.05790078	0.62066086
0.62014361	0.57034777	0.64645906
0.10668502	0.31113946	0.62141072
0.13611857	0.81841735	0.62085865
0.11399698	0.06362443	0.12211891
0.12644906	0.5580516	0.12535239
0.60054078	0.31285563	0.11465822
0.64676211	0.81649922	0.12816481
0.61262832	0.05763607	0.62993446
0.61822039	0.56299219	0.63830943
0.11464532	0.31740161	0.61369328
0.1269724	0.82384725	0.62301596
0.10955051	0.06058945	0.13236877
0.1203823	0.56193057	0.12172751
0.61286956	0.31270159	0.12087779
0.63869716	0.81069835	0.13955318
0.60558736	0.06060598	0.64316246
0.61778402	0.56257311	0.62720913
0.11980866	0.31773679	0.61099822
0.12729104	0.82440069	0.62574349
0.12036637	0.0551967	0.13328425
0.11611863	0.56555068	0.11695052
0.62784296	0.31534545	0.12279176
0.63259006	0.80940032	0.13597349
0.60726976	0.06421039	0.65273883
0.6226268	0.56449386	0.62919313
0.11142652	0.31204534	0.62009243
0.13799722	0.82062859	0.62826609
0.13040427	0.0534223	0.1266707
0.10263626	0.56598043	0.11241285
0.62631959	0.31736784	0.12839325
0.63853254	0.81500659	0.13231279
0.61571427	0.06109324	0.65325213
0.62816713	0.56180383	0.62925361
0.09917894	0.30969429	0.63069551
0.13606892	0.81928387	0.62657142
0.13292458	0.05621708	0.12167534
0.08854934	0.56260374	0.11746069
0.61028472	0.31431452	0.13306663
0.64899704	0.81873042	0.14182759
0.61999015	0.05460723	0.64453119
0.62371598	0.55996129	0.61741697
0.10003512	0.31516005	0.62990421
0.12553476	0.81898668	0.61941899
0.13087157	0.05860495	0.12318368
0.088021	0.55779718	0.12579971
0.60442718	0.3095243	0.12821089
0.6482624	0.81693953	0.14955312
0.61728482	0.05669564	0.63894239
0.60971153	0.56446656	0.60702209
0.10987849	0.32255308	0.62063283
0.12917948	0.81451673	0.61103147
0.12742878	0.0588041	0.12611217
0.09410442	0.5588858	0.12856871
0.61461259	0.30922516	0.12331264
0.63553597	0.81276266	0.14295422
0.61922934	0.06408338	0.63957076
0.59978948	0.56898686	0.60934884
0.11329554	0.32374401	0.61896408
0.13966508	0.81042429	0.61516338
0.12622488	0.0580695	0.1271855
0.10140125	0.56485696	0.1248038
0.62811434	0.31282961	0.12987993
0.63378843	0.81065704	0.12970047
0.62584104	0.06941993	0.63282755
0.59895157	0.56752728	0.62285472
0.09822508	0.31947927	0.62598883
0.13654476	0.8126103	0.6302308
0.12826202	0.05739547	0.12869061
0.11217772	0.56512386	0.12316171
0.62639628	0.31338149	0.13780933
0.64109278	0.81138096	0.12149021
0.6199754	0.06714092	0.62122283
0.6076424	0.56218472	0.63416823
0.089673	0.31883301	0.62278582
0.12152013	0.81474412	0.63787558
0.12977452	0.05730497	0.13307202
0.12765619	0.56414604	0.12918649
0.61410799	0.30568954	0.13717419
0.64069655	0.81163777	0.11979665
0.61148403	0.06200139	0.60751006
0.61865061	0.55729145	0.6329666
0.10085664	0.32085562	0.61743923
0.11626299	0.81384557	0.63092873
0.13076063	0.05917793	0.1382637
0.14157408	0.56550428	0.12630555
0.61559746	0.29815946	0.13002433
0.62588101	0.81051879	0.11809304
0.62198136	0.06072558	0.60018598
0.61973944	0.55546255	0.62344072
0.11318058	0.32171382	0.6222392
0.12562739	0.81371446	0.62972246
0.13266698	0.06064038	0.14030453
0.14338664	0.56526413	0.1079759
0.63604882	0.29952091	0.12498659
0.61172984	0.80836867	0.11799974
0.63963836	0.06357766	0.60342938
0.61727894	0.55768485	0.61688448
0.11267173	0.32209281	0.62953959
0.13563649	0.81587684	0.63939772
0.13225859	0.0607762	0.13817553
0.13417445	0.56137594	0.10195134
0.63859836	0.30353074	0.12635174
0.60939293	0.80603296	0.12139677
0.64598885	0.06644248	0.61029205
0.61332596	0.55688899	0.61718013
0.115188	0.3216223	0.63035567
0.13044882	0.81882061	0.64300091
0.13033806	0.06352283	0.13231545
0.13051978	0.5575558	0.11710457
0.61995913	0.30251056	0.12868104
0.61459581	0.80375361	0.12146036
0.63941608	0.06682511	0.6083072
0.61116689	0.55303564	0.61896862
0.12639215	0.32108572	0.62441647
0.1139823	0.82033981	0.63094802
0.13233494	0.06899024	0.12929296
0.13770263	0.55867934	0.13137428
0.60559492	0.30087196	0.12164035
0.61681821	0.80188858	0.11459975
0.63523953	0.06557553	0.59585412
0.61240694	0.55213033	0.6126044
0.13201273	0.31993388	0.62368988
0.09885294	0.81870683	0.62370728
0.13137914	0.07074988	0.13077756
0.1432548	0.5625955	0.12988055
0.6127787	0.30158581	0.10870748
0.61389811	0.80128388	0.10393126
0.64587181	0.06271904	0.59203357
0.61178851	0.55785111	0.61035032
0.13149894	0.31792876	0.62640729
0.09917442	0.81846603	0.62912138
0.12362044	0.06617199	0.13058174
0.13723079	0.56226076	0.11913311
0.62269696	0.30341142	0.1048571
0.61306706	0.80020384	0.09971807
0.65420965	0.05792663	0.60358231
0.61224598	0.56328714	0.61582252
0.13467863	0.31758052	0.62450604
0.10394796	0.82182188	0.63562899
0.11695555	0.06256897	0.12679506
0.12623856	0.55685847	0.11250976
0.62076524	0.30431629	0.10832386
0.61826579	0.79800895	0.10302404
0.638496	0.05601811	0.61829433
0.62014189	0.56035159	0.619429
0.13921503	0.31879946	0.61885504
0.09700935	0.82474066	0.63200145
0.11637276	0.06770802	0.12373998
0.11942721	0.55915011	0.12065603
0.61887122	0.30551428	0.10984864
0.62469854	0.7967109	0.10402781
0.61551155	0.05450955	0.62075318
0.63023094	0.5535127	0.61329991
0.14141673	0.32050523	0.61758925
0.08580455	0.82436689	0.62451299
0.12174678	0.07317896	0.12595843
0.11835806	0.5670607	0.12807058
0.62833225	0.3071259	0.10735554
0.62530776	0.79876831	0.10479605
0.61641547	0.05021332	0.62350117
0.63709306	0.55546675	0.60997865
0.14449943	0.3201816	0.62012124
0.08771406	0.82273948	0.6169211
0.1258305	0.06974779	0.1267393
0.12082969	0.57071209	0.11761245
0.63952612	0.3080788	0.10146114
0.62008306	0.8023213	0.10841872
0.62662172	0.04652218	0.63674046
0.63618732	0.56332514	0.61028816
0.14893542	0.31941621	0.62032072
0.10205535	0.82216471	0.61527518
0.1201841	0.0617507	0.12558727
0.12314387	0.5674237	0.10534291
0.64032656	0.30700747	0.09747103
0.61708434	0.80186347	0.11158917
0.62496556	0.04572161	0.64355098
0.63313576	0.56475669	0.60919595
0.14658695	0.32224988	0.6126924
0.11281236	0.82231467	0.61613952
0.11296464	0.0607564	0.12697299
0.12013343	0.56458915	0.10557866
0.62846827	0.30461678	0.10626983
0.61581125	0.79840364	0.11163846
0.61011384	0.04835156	0.6386989
0.63504154	0.55480283	0.60854935
0.13952032	0.32323662	0.60447797
0.10651596	0.82040146	0.61795722
0.11502388	0.06550721	0.12353367
0.10977778	0.56689632	0.11568675
0.61565273	0.30289881	0.12089757
0.60844297	0.79914183	0.10771432
0.60449673	0.05620889	0.63046093
0.63389189	0.55053058	0.60630601
0.13583556	0.3209708	0.60700109
0.09884229	0.82008926	0.61479339
0.12313994	0.06822269	0.11325979
0.09901472	0.56965802	0.12568803
0.61172625	0.30393118	0.12205175
0.59563503	0.8036882	0.10659789
0.61148409	0.06096887	0.62845261
0.62974216	0.55833156	0.60464545
0.13515733	0.31863115	0.6172022
0.10729131	0.82150115	0.60852267
0.12662874	0.0612408	0.10994749
0.10110287	0.56761093	0.12598668
0.6250722	0.30573654	0.11426761
0.58971306	0.80586588	0.114539
0.62243663	0.05767907	0.63100559
0.62988014	0.5633635	0.60990841
0.13640626	0.31763612	0.61364255
0.11969404	0.81804884	0.60571978
0.12383717	0.05487681	0.11704724
0.10173023	0.56358273	0.12037406
0.64629845	0.30488343	0.1154142
0.59664326	0.80512387	0.12250052
0.62561115	0.05349156	0.63246508
0.63368407	0.55534793	0.6174202
0.13647296	0.31861227	0.60555024
0.12008338	0.81379856	0.60759711
0.12345556	0.05872287	0.12515105
0.10294758	0.56260573	0.11220512
0.65259943	0.30185342	0.1266787
0.60223523	0.80396669	0.11861226
0.62407958	0.06073284	0.629215
0.63460513	0.55488998	0.6187693
0.13360513	0.31711218	0.6177244
0.11927329	0.81481026	0.60914264
0.12956608	0.06570853	0.12482851
0.11319061	0.56486611	0.10623581
0.64121557	0.30028941	0.13264022
0.59925363	0.80680692	0.11446395
0.62223968	0.06826632	0.6227445
0.63279826	0.56014948	0.61399773
0.12680273	0.31446939	0.64111751
0.12295594	0.81611849	0.60796896
0.13677175	0.06724748	0.11918941
0.12871267	0.56648546	0.10229613
0.62864781	0.30183399	0.1284622
0.60183352	0.81126258	0.12093625
0.62841015	0.0645913	0.61795047
0.63533888	0.56009169	0.61447367
0.12448442	0.31459321	0.64525393
0.12896887	0.81433899	0.6057439
0.1383561	0.06370565	0.12029517
0.13492957	0.56513108	0.10063529
0.62952934	0.30292671	0.12862721
0.61475575	0.81289295	0.12925069
0.63973772	0.05507524	0.6173953
0.63409168	0.55429093	0.62302247
0.13394476	0.31514654	0.63014089
0.13071024	0.81619782	0.6089821
0.1295378	0.06124039	0.12747417
0.13103482	0.56302394	0.10256471
0.63680591	0.300784	0.13650568
0.6227673	0.80912028	0.1309804
0.64344541	0.05874656	0.61469829
0.62679374	0.55129159	0.6267649
0.13827012	0.31537171	0.61705992
0.12910822	0.81815823	0.61840863
0.12157119	0.06385985	0.12332004
0.12585143	0.5632083	0.11074565
0.63460079	0.29948349	0.13585097
0.61935326	0.80729051	0.12353373
0.63300701	0.07104727	0.61041641
0.62199398	0.55427934	0.62104036
0.13727215	0.31695137	0.62709952
0.1299711	0.81457288	0.62705891
0.12292074	0.06770477	0.10434833
0.12594366	0.56159989	0.12157757
0.62650047	0.30540028	0.13060422
0.61186093	0.80960276	0.11437287
0.62333939	0.07284739	0.60839396
0.62185761	0.56059555	0.619753
0.13202577	0.31565198	0.63844241
0.13903841	0.81187717	0.62489019
0.1304112	0.06573706	0.09276893
0.13125196	0.55832214	0.12661796
0.62678203	0.31217748	0.13042019
0.61347915	0.81073254	0.12319737
0.6278795	0.06077211	0.60645525
0.62125802	0.56540669	0.62701148
0.13380825	0.31297417	0.63430129
0.14973011	0.81504682	0.61404887
0.13441042	0.05958582	0.09819321
0.13531754	0.56017173	0.12154087
0.63245795	0.31464423	0.14473556
0.62387254	0.80792836	0.14117758
0.64498582	0.0520062	0.60250233
0.61532018	0.56637297	0.63187521
0.13863607	0.31169132	0.6195648
0.14477191	0.81922605	0.61253969
0.13144352	0.06033452	0.11086276
0.13914166	0.56457025	0.12181796
0.63556664	0.3093918	0.15527199
0.63418212	0.80132537	0.14040501
0.65114643	0.05358854	0.60278893
0.61102124	0.56825413	0.63423545
0.13489676	0.31272309	0.61893263
0.13695954	0.81773939	0.6186738
0.12440833	0.06598404	0.11682765
0.14420495	0.5620536	0.13146414
0.63200447	0.30251233	0.14866317
0.63975291	0.79869874	0.12376257
0.63412636	0.06019443	0.60391178
0.61911537	0.57232861	0.63689135
0.12140283	0.31408376	0.63537801
0.14127292	0.8123078	0.61798859
0.12369879	0.06990647	0.1147286
0.15125421	0.55666264	0.13990989
0.62264757	0.30233475	0.13260243
0.64470831	0.80345107	0.12052664
0.6206605	0.06731823	0.60145093
0.63067095	0.57437761	0.64440926
0.11857741	0.3146396	0.64936132
0.14174122	0.80985187	0.61761126
0.12710235	0.0665906	0.11091264
0.15511679	0.55797416	0.1401367
0.61838993	0.30843871	0.12132154
0.65122019	0.81011052	0.13559036
0.62195309	0.070084	0.60243334
0.63692681	0.57203061	0.64906129
0.1252713	0.31709274	0.63898183
0.12591897	0.81351294	0.62928546
0.11907815	0.05989307	0.10871637
0.14712638	0.56306668	0.13926061
0.62530757	0.31407327	0.12029727
0.64624902	0.80818182	0.14838201
0.62238839	0.06968036	0.61060581
0.63481905	0.56884513	0.64714567
0.12906874	0.32096705	0.61711021
0.10932699	0.81947184	0.64442095
0.09998055	0.05718528	0.1136401
0.13616276	0.56211026	0.14335486
0.63360323	0.31524633	0.1249141
0.63414801	0.80266575	0.14459781
0.61410432	0.07074181	0.62189165
0.63104021	0.56893814	0.64326589
0.12587491	0.32165051	0.61643516
0.10994153	0.81978169	0.65006012
0.09412573	0.05729071	0.11510555
0.13309014	0.55738283	0.15071089
0.63244632	0.3119389	0.12782631
0.63428799	0.80623577	0.12597356
0.6025581	0.07443706	0.62721447
0.63655351	0.57123529	0.6481542
0.12008356	0.31949437	0.63776011
0.11597661	0.81573759	0.6415471
0.1076547	0.0563041	0.11039499
0.13174982	0.55447222	0.15627227
0.62824448	0.31280297	0.12740816
0.64037107	0.80811262	0.11813528
0.60167262	0.07210244	0.628201
0.64962239	0.57173256	0.65422299
0.12536229	0.31898463	0.6536057
0.11619925	0.81542509	0.63314319
0.12147516	0.05536491	0.11598662
0.12812513	0.55449556	0.15697346
0.62923267	0.31656971	0.1167024
0.63844561	0.80386239	0.13151728
0.61395224	0.06546254	0.6299688
0.64563942	0.56669696	0.65237936
0.13338677	0.32098841	0.64784875
0.11555749	0.82238853	0.64060512
0.12124814	0.05605811	0.13765963
0.13166077	0.55757586	0.15123163
0.639578	0.31149462	0.10277893
0.62999103	0.8002465	0.14180841
0.62498941	0.0644216	0.6310937
0.63054148	0.5591905	0.63859258
0.12381131	0.32116519	0.62809822
0.11842888	0.8267932	0.64946536
0.11403204	0.05792261	0.1514463
0.1342386	0.55845786	0.14345633
0.65144508	0.30356866	0.10332416
0.62237458	0.80210286	0.12376863
0.62418295	0.0694264	0.62266914
0.62893602	0.55552263	0.62293114
0.11088828	0.31767768	0.61058995
0.12004267	0.82138014	0.64022504
0.12130256	0.06216822	0.15073838
0.13203575	0.55618818	0.14050823
0.65073361	0.30443485	0.11023681
0.62382369	0.80887628	0.10458628
0.61355764	0.0681185	0.61335557
0.64080827	0.55838234	0.61806237
0.11148529	0.31709323	0.61433476
0.11785371	0.81396417	0.62898192
0.13654379	0.06651487	0.14127823
0.12977906	0.55480815	0.14393174
0.63753893	0.31314587	0.11278171
0.62672581	0.81270217	0.115334
0.60696838	0.06151271	0.61781626
0.64831598	0.56013179	0.62222637
0.12249422	0.32139113	0.63069142
0.11495401	0.81555189	0.63556843
0.13864721	0.06624088	0.13925546
0.13434133	0.55684403	0.14336201
0.62556395	0.31694546	0.11009308
0.61774144	0.80988066	0.13813861
0.61420412	0.06009748	0.62961865
0.64274268	0.55848065	0.6282718
0.12896106	0.32341715	0.63066907
0.11624649	0.82078915	0.6553228
0.12848779	0.06279973	0.14927976
0.14177873	0.56146107	0.13600937
0.62687504	0.31214799	0.10981422
0.61073819	0.80759668	0.13704439
0.6294525	0.06594455	0.63793259
0.62736134	0.56007514	0.62994711
0.12348005	0.31965694	0.61590763
0.11764667	0.81877121	0.66102879
0.11677341	0.06357897	0.15651598
0.13987384	0.56280237	0.12615144
0.62827794	0.30541	0.11920865
0.61848938	0.81458807	0.12190811
0.63290746	0.06869105	0.63275575
0.62072432	0.56003373	0.62919797
0.11687476	0.31283726	0.61574944
0.1180568	0.81180069	0.6471758
0.11921434	0.06755561	0.14694475
0.12778831	0.56089255	0.12389731
0.62074398	0.30543076	0.13518209
0.62866757	0.82211337	0.11958693
0.62355537	0.06189705	0.62668085
0.6296507	0.56152182	0.62616588
0.1198883	0.31085025	0.63312138
0.12242421	0.8114082	0.63075868
0.13167427	0.06835807	0.1338414
0.11695288	0.56194384	0.12597237
0.61502734	0.31021409	0.13693735
0.63220612	0.82115547	0.1337738
0.6173198	0.05238526	0.63295884
0.63225819	0.56580668	0.62212956
0.12856904	0.31452529	0.64721544
0.13425888	0.81633125	0.62310632
0.13798971	0.06566299	0.13460292
0.1178544	0.56924814	0.12334075
0.62045622	0.31098215	0.13121637
0.62975375	0.81400531	0.13821314
0.62273941	0.05391849	0.64543662
0.61299524	0.56769521	0.62304914
0.12670565	0.31632505	0.65241501
0.13141577	0.81902618	0.62910691
0.12705828	0.06332556	0.14411068
0.12104551	0.57345953	0.11414487
0.62381243	0.30501725	0.1339311
0.62900106	0.80755146	0.12965645
0.62431775	0.05975476	0.64481204
0.58909165	0.56424187	0.62514403
0.11253066	0.31267458	0.64813042
0.12253657	0.81772427	0.62887727
0.12559438	0.06384081	0.14784768
0.11833734	0.56943962	0.11213356
0.6126522	0.29877098	0.14561482
0.63678741	0.80768465	0.12370076
0.61758481	0.05751219	0.63630969
0.58336697	0.55839371	0.62474216
0.1039126	0.31012488	0.64403001
0.12960316	0.81676093	0.61175498
0.13346524	0.0666519	0.1355493
0.11018975	0.56876741	0.11801981
0.60567542	0.29866901	0.15583541
0.64299892	0.81103345	0.125026
0.61453875	0.05270259	0.6308151
0.59622736	0.5563309	0.62507599
0.11197388	0.31400806	0.64867124
0.13526107	0.81805073	0.59890477
0.1390308	0.06822182	0.1221169
0.10881847	0.57271089	0.11779435
0.6069957	0.30622923	0.15663841
0.6317299	0.80907741	0.13194552
0.61805718	0.05229431	0.63733232
0.61189831	0.56092751	0.62737464
0.12219681	0.32118709	0.65079435
0.12715375	0.81999602	0.60982112
0.13572299	0.0658194	0.1298936
0.12259144	0.57417333	0.11281317
0.61317902	0.31173441	0.1530312
0.61919506	0.8050271	0.1381157
0.62114386	0.05775654	0.64690745
0.60536711	0.56699042	0.62912596
0.12066523	0.32394296	0.63816957
0.1181889	0.81953933	0.62276247
0.12772903	0.06109219	0.13748816
0.13436874	0.56845071	0.11590673
0.61985527	0.31030931	0.14975762
0.61740733	0.80560718	0.13538052
0.61973973	0.06416929	0.64259951
0.58778789	0.56843137	0.6256473
0.10202464	0.32015487	0.62483134
0.12641406	0.81778959	0.61728944
0.124243	0.06138514	0.13117889
0.12335618	0.56140843	0.12233026
0.62261279	0.30968991	0.14567378
0.62524206	0.80842649	0.12227106
0.62063015	0.06479597	0.63410136
0.59582355	0.56375476	0.62220909
0.0927083	0.31594234	0.62662699
0.14189811	0.81802718	0.60202612
0.1284925	0.06602599	0.11876918
0.10214142	0.5602042	0.12093907
0.62453122	0.31390219	0.14273787
0.63574084	0.80850396	0.10980857
0.62396732	0.06274368	0.63503451
0.61951423	0.55793135	0.62553388
0.10446122	0.31699324	0.63605392
0.14897988	0.82035726	0.59944988
0.1272367	0.06631946	0.11716397
0.09960266	0.56209261	0.11467902
0.62324287	0.31783825	0.14101915
0.63902981	0.80430126	0.11105313
0.62418441	0.06408447	0.63903939
0.62760321	0.55859688	0.63251081
0.11480697	0.31906802	0.62703083
0.1400136	0.82228	0.6121376
0.11388772	0.05824368	0.13092916
0.11343422	0.56200723	0.11370883
0.61852616	0.31438411	0.14053579
0.63644827	0.80068679	0.11210348
0.62364936	0.0689206	0.63886791
0.61559991	0.56708566	0.63899414
0.10436654	0.31962125	0.61175403
0.12478901	0.82285871	0.61710823
0.10171324	0.05435988	0.14605347
0.11786198	0.55918356	0.11961457
0.61418511	0.30421695	0.13898466
0.63497251	0.8031187	0.10876257
0.62706555	0.07034744	0.63263578
0.60017928	0.56987811	0.64011864
0.0966417	0.31923698	0.61350018
0.11475314	0.82297904	0.6044138
0.10228774	0.06043251	0.14404272
0.10630434	0.55743528	0.12104945
0.61463401	0.29839479	0.13144933
0.63690919	0.8079145	0.10666943
0.62877586	0.06776254	0.62339958
0.60267497	0.56464823	0.63318537
0.10687152	0.31827862	0.62833376
0.11835105	0.82536734	0.5987252
0.11031873	0.06118466	0.12496099
0.09707607	0.56035968	0.11832422
0.61817487	0.30200452	0.12885045
0.6408108	0.80707537	0.11421961
0.62997153	0.06539515	0.61880313
0.62099691	0.55995213	0.6254029
0.1258487	0.3186305	0.63481286
0.12713794	0.82545049	0.60821943
0.11969854	0.05250723	0.11066028
0.10969621	0.56306747	0.11605364
0.61747008	0.30400197	0.13259648
0.63956921	0.80318683	0.12111375
0.63085716	0.06505511	0.62140809
0.62327814	0.56310636	0.62352424
0.13518792	0.32646565	0.62519397
0.11898547	0.81841906	0.62011866
0.12569261	0.05218302	0.11963049
0.12997996	0.55890239	0.11951577
0.61649615	0.29956314	0.11877875
0.62648934	0.80318346	0.11600528
0.62885562	0.06351408	0.62716271
0.60242136	0.56737936	0.62707036
0.12428463	0.33303889	0.6067203
0.10126586	0.81313693	0.61712693
0.12117911	0.05876256	0.12926855
0.12961029	0.55601314	0.12416939
0.61854588	0.29826716	0.10185601
0.61555969	0.81003148	0.11146438
0.6255116	0.05955187	0.62902488
0.59506662	0.5621605	0.62556652
0.10682685	0.32411388	0.5939571
0.10085928	0.8184494	0.60910718
0.1100732	0.06335441	0.12202194
0.11372146	0.55619957	0.12261896
0.61733572	0.3040493	0.09856339
0.61688778	0.8178377	0.11145767
0.62485463	0.05784697	0.62482248
0.61506262	0.55485575	0.61756576
0.10585977	0.3161242	0.59232537
0.11207007	0.82411561	0.61669351
0.10803242	0.06166124	0.11310499
0.10831203	0.55436381	0.12240833
0.61268814	0.31139661	0.10763326
0.62593845	0.81334217	0.10781537
0.62959552	0.06009127	0.62454203
0.6333142	0.55872712	0.61252634
0.1234849	0.31654125	0.6002581
0.11463622	0.82007274	0.63106171
0.11649502	0.05736437	0.1197667
0.12207273	0.55109741	0.12083904
0.60799893	0.31075808	0.11496479
0.6283456	0.80095024	0.10509882
0.6246755	0.05955549	0.62997516
0.63186572	0.56619585	0.61273473
0.12792825	0.31725502	0.61011639
0.1070182	0.81430266	0.62622992
0.12208826	0.05747112	0.12800328
0.13377953	0.55235273	0.1168728
0.6090267	0.3039328	0.11029437
0.61446886	0.80071689	0.10226255
0.61748492	0.05502571	0.62563063
0.62101943	0.56304132	0.61412505
0.11367749	0.31431323	0.6118064
0.10240364	0.81299316	0.61253592
0.11898084	0.06235852	0.12701564
0.12914879	0.55875426	0.11499796
0.61380554	0.30035825	0.09629428
0.6061414	0.80911005	0.10823696
0.62328413	0.05393758	0.61012133
0.61831957	0.55529547	0.61120213
0.10137359	0.3088009	0.60747465
0.10908605	0.81511782	0.6125596
0.12277998	0.06455122	0.11658429
0.10909033	0.5611414	0.12189581
0.61435815	0.3046319	0.09240216
0.61438155	0.81025685	0.10958866
0.62453818	0.06292448	0.60152499
0.62702115	0.55308694	0.61200894
0.10910349	0.30732245	0.61268674
0.12183415	0.8148886	0.626908
0.13796196	0.06060809	0.10671977
0.10582779	0.56095966	0.12924538
0.61118514	0.30866523	0.1041278
0.62451856	0.80091174	0.10696123
0.61354177	0.07074086	0.60831787
0.63114258	0.55970759	0.6125028
0.12330437	0.31430123	0.62549895
0.12567322	0.80931953	0.63857335
0.14245317	0.05703878	0.11149876
0.12146831	0.56197984	0.1244521
0.60938168	0.30403968	0.11542579
0.61473753	0.79409863	0.11046135
0.60790221	0.06691036	0.62292911
0.62435475	0.56601646	0.60987388
0.12472717	0.32044455	0.63013101
0.11927253	0.8040006	0.63507972
0.13463546	0.05921027	0.12403435
0.13413487	0.56586599	0.11305532
0.60801982	0.30069812	0.1094561
0.60439393	0.80109667	0.11202759
0.61478658	0.0596548	0.62958027
0.61896313	0.56594168	0.60841484
0.11749443	0.31582065	0.62316915
0.11848198	0.8057808	0.62571995
0.12600082	0.06620624	0.1294693
0.13144367	0.5674464	0.11116627
0.61607976	0.30273831	0.10178895
0.6041784	0.80637099	0.10778211
0.62267946	0.06196903	0.62264183
0.62588846	0.56568398	0.60952807
0.12233315	0.30890408	0.61826051
0.12537387	0.81260766	0.62067509
0.12588692	0.06922507	0.12372281
0.11925197	0.56428994	0.11825016
0.6291867	0.30619133	0.1074892
0.608232	0.79739987	0.11063405
0.6187108	0.06919102	0.60800056
0.64292666	0.5664682	0.60741275
0.13858814	0.30865136	0.62093775
0.13183949	0.81760684	0.62781293
0.13374914	0.06506466	0.11331029
0.11213489	0.56033665	0.12089856
0.63132032	0.31039055	0.12213043
0.60828479	0.78972796	0.12462538
0.61098957	0.0733887	0.60154454
0.6521484	0.56718194	0.60218633
0.14343494	0.31390322	0.62680203
0.13300111	0.81493822	0.63668901
0.13786225	0.06180076	0.10910853
0.11904146	0.56176807	0.11354343
0.62249428	0.30966078	0.12362282
0.604109	0.79261496	0.14041417
0.61190573	0.07046776	0.60696561
0.64408561	0.56808343	0.60085898
0.1349655	0.31731842	0.62567696
0.1289841	0.81677787	0.63923144
0.13152448	0.06638242	0.11318124
0.12752932	0.56635022	0.10563192
0.61825288	0.30528762	0.10610348
0.60591155	0.80057526	0.14288834
0.62044617	0.06382159	0.61098234
0.63231605	0.56772308	0.61009571
0.12797071	0.31797982	0.61831519
0.13112309	0.82019384	0.63567741
0.13234533	0.07214108	0.1155806
0.12162162	0.56880138	0.10427364
0.6311162	0.30395236	0.09445391
0.61614941	0.80569059	0.13555685
0.62397532	0.06436961	0.60628554
0.62953852	0.56551961	0.62413043
0.13112153	0.31655264	0.61590127
0.14151539	0.81844625	0.63030235
0.14134841	0.07158242	0.10292341
0.11656206	0.5661132	0.10854553
0.65051288	0.30599352	0.10553308
0.6232113	0.80598034	0.13111754
0.62004764	0.07073334	0.60176854
0.63138634	0.5622645	0.63220633
0.13791888	0.31619718	0.6208941
0.14686583	0.81689375	0.63154567
0.1410397	0.06578019	0.09045868
0.12566147	0.56240007	0.11201545
0.65865331	0.30741717	0.1191829
0.61721309	0.80585389	0.13612555
0.61691694	0.07004527	0.60835366
0.63092012	0.56062171	0.63107525
0.14078046	0.31959998	0.62459695
0.13656152	0.81889901	0.63351098
0.13213218	0.06343165	0.10695537
0.14013641	0.56131708	0.11316127
0.65215207	0.30422778	0.11487604
0.60079657	0.80947356	0.14596318
0.62515178	0.06310908	0.62360136
0.63070151	0.56174054	0.62557043
0.13934053	0.32239307	0.62319722
0.11905491	0.82250011	0.62710982
0.12168433	0.06412864	0.12838337
0.14468886	0.56369815	0.11450903
0.64532588	0.29835043	0.10166904
0.59602131	0.81396287	0.14894135
0.63604263	0.05731968	0.63035796
0.63158446	0.56167945	0.62193057
0.1354013	0.31982977	0.62071052
0.11168021	0.82396407	0.6150937
0.11076039	0.05955912	0.12012342
0.13571106	0.56537089	0.117605
0.64995365	0.29882185	0.10402753
0.61706106	0.81471564	0.14097342
0.63708543	0.05775788	0.61762036
0.63114239	0.55874036	0.62513769
0.13343683	0.31725447	0.61976306
0.11565656	0.82243416	0.61356201
0.11246601	0.05895396	0.10910079
0.12490633	0.56374506	0.12148144
0.65821216	0.30849609	0.11983694
0.62637782	0.8097109	0.13091891
0.6349136	0.06157541	0.60568403
0.62922309	0.55612019	0.63513323
0.13458669	0.32226096	0.62259558
0.11712139	0.82120064	0.61767065
0.12317868	0.06250355	0.11414953
0.12654161	0.5614865	0.12878913
0.65130999	0.31634945	0.12554714
0.61345802	0.80421577	0.13050138
0.637197	0.06010057	0.60629237
0.625663	0.55454704	0.63964068
0.13579958	0.32860847	0.62572848
0.10917376	0.82174031	0.61577518
0.12652542	0.06436094	0.1155085
0.13309932	0.56240519	0.14112443
0.63361609	0.30892523	0.1170307
0.61087179	0.80592601	0.13407384
0.64310051	0.05490676	0.61300223
0.62335773	0.55375603	0.6347058
0.13314288	0.32808182	0.62402722
0.09914291	0.82314875	0.61233292
0.11684679	0.06361551	0.11374039
0.13476716	0.56464423	0.14306489
0.6220048	0.3001734	0.10817488
0.62388135	0.81397618	0.12693713
0.6462241	0.05375754	0.61153497
0.62304926	0.55501227	0.62796829
0.13370329	0.32325552	0.62038115
0.0965506	0.82660076	0.61515129
0.10301179	0.0602577	0.11524076
0.13163621	0.56420959	0.13760739
0.62823235	0.30307267	0.11991906
0.63316165	0.81581909	0.10931625
0.64101525	0.05777922	0.60194524
0.62364841	0.55798674	0.63039095
0.13992037	0.32083684	0.61979799
0.10457648	0.82471302	0.62130119
0.09821964	0.05818472	0.12006475
0.13219965	0.55968276	0.13708681
0.63719479	0.3129419	0.14110528
0.62883755	0.80869298	0.0995543
0.63350619	0.05931167	0.5955432
0.62366682	0.55899787	0.63645844
0.1441774	0.32141495	0.62333798
0.11150211	0.82279399	0.62411459
0.11322545	0.05944479	0.12142939
0.13953586	0.55459664	0.14229425
0.63078962	0.31435396	0.14813978
0.61759839	0.80426256	0.10894319
0.63418493	0.05532752	0.60190442
0.6219711	0.55811449	0.63754041
0.14465801	0.32061122	0.62701451
0.10629461	0.82021579	0.62719827
0.13021439	0.06426936	0.11994891
0.14692283	0.5588255	0.14272366
0.61504603	0.3080124	0.13490467
0.61335336	0.80871181	0.12790461
0.64532699	0.05393308	0.610708
0.61800387	0.56049645	0.6324722
0.14402701	0.31512752	0.62464244
0.10076576	0.81569835	0.63170814
0.12183352	0.06456709	0.12280966
0.14298725	0.56823225	0.13462836
0.61355042	0.30440292	0.12474808
0.61971337	0.8159337	0.12689918
0.65276589	0.0566359	0.61374083
0.61078387	0.56296498	0.62982079
0.14284721	0.30895627	0.61749496
0.1140286	0.81755857	0.62906638
0.11614057	0.06174891	0.12208839
0.13032524	0.57293084	0.12771532
0.62667145	0.30978727	0.13142405
0.63221797	0.81746074	0.10649887
0.64449682	0.05646196	0.6103528
0.60800108	0.5597562	0.63206601
0.14101813	0.30882732	0.61852176
0.12478677	0.82145636	0.62302786
0.12963595	0.06532102	0.1172478
0.12270643	0.56754441	0.13311349
0.6347926	0.31533968	0.1480368
0.63657123	0.81083697	0.1030609
0.62772367	0.0528923	0.60745015
0.61660928	0.5539175	0.63494053
0.1386888	0.3164278	0.62498161
0.12049508	0.82034453	0.62138069
0.14015641	0.07221036	0.11385231
0.12331419	0.55896091	0.14419014
0.62275293	0.31493446	0.14567656
0.62437857	0.80170271	0.11892937
0.62289301	0.05214739	0.61341639
0.63065143	0.5530481	0.63492616
0.1369417	0.32372822	0.62481957
0.1069805	0.8132216	0.6250397
0.13866536	0.07235582	0.11675484
0.12397383	0.55736058	0.14223639
0.60589974	0.30923146	0.12527349
0.60615249	0.803366	0.12356211
0.62481487	0.05514354	0.62985963
0.63870009	0.55616733	0.63276212
0.13223273	0.3240971	0.62376581
0.09673947	0.81096742	0.63010337
0.12818922	0.06331785	0.12670523
0.12079524	0.5622613	0.12846409
0.61458148	0.30478524	0.11983776
0.60793814	0.81116699	0.10687734
0.62080203	0.05856847	0.64538938
0.63406777	0.56027268	0.6292341
0.12426835	0.31798616	0.631156
0.10107328	0.8108504	0.63570229
0.1232808	0.05169494	0.13787326
0.11558166	0.56608678	0.1209853
0.6327178	0.30621093	0.13447015
0.62555426	0.80891556	0.09339098
0.61900114	0.0620141	0.64209879
0.63136993	0.56024993	0.62806949
0.11957097	0.31283235	0.63846981
0.11294673	0.80997477	0.63664334
0.13041621	0.05058285	0.14511259
0.11497972	0.56399172	0.12145967
0.63234097	0.30872979	0.13694943
0.6277091	0.79667477	0.10558826
0.62290633	0.0650076	0.63592842
0.63815905	0.55924116	0.62860653
0.12445808	0.3126716	0.63572883
0.11595522	0.80955946	0.6345377
0.13955315	0.05956394	0.14793102
0.11741557	0.5574651	0.11562783
0.61545672	0.3061489	0.12591532
0.61722068	0.78736447	0.12898717
0.62244969	0.0678089	0.64576954
0.64334065	0.56193715	0.62952484
0.12864159	0.31619071	0.62918369
0.11059528	0.80911159	0.63196086
0.13781481	0.06700214	0.14139179
0.11725841	0.55571937	0.10289783
0.60519329	0.30133006	0.1225004
0.61969768	0.78949041	0.13189572
0.62156827	0.06981276	0.65167327
0.63601682	0.56427265	0.63100125
0.11473272	0.31754605	0.62943593
0.11943695	0.8094285	0.63269598
0.13078028	0.06783681	0.13214442
0.11589192	0.56245666	0.10045364
0.60654984	0.29931108	0.12970097
0.62510714	0.79886473	0.11894794
0.62411805	0.06926907	0.64504618
0.6296768	0.56236067	0.62427321
0.10707827	0.31312434	0.63779381
0.13814366	0.81158251	0.64126977
0.13405828	0.06415324	0.13430152
0.11180363	0.57012043	0.1171235
0.61115379	0.30093779	0.13500327
0.61979634	0.80657956	0.11470186
0.62813241	0.06701158	0.637696
0.6310719	0.55946851	0.61419023
0.11677604	0.30962965	0.64831742
0.14977291	0.81553584	0.64502011
0.14040604	0.06525787	0.1456484
0.10781072	0.56727095	0.13630978
0.61012153	0.30090606	0.13245855
0.61729996	0.80679045	0.13032125
0.62699806	0.06553107	0.63885153
0.63365086	0.55995609	0.61028175
0.12365315	0.31047969	0.65313826
0.14708762	0.81780463	0.63994616
0.13577494	0.06886746	0.14665437
0.11126777	0.55944662	0.14081755
0.60795857	0.2999246	0.12674569
0.62484537	0.80137761	0.14646407
0.6216273	0.06533754	0.64654919
0.63029975	0.56394932	0.61358965
0.11505794	0.31175498	0.64814417
0.13811521	0.8188038	0.63903801
0.12244116	0.06704982	0.14128375
0.1174647	0.55640178	0.13545928
0.61389114	0.30037966	0.12417918
0.63482097	0.79567672	0.14760131
0.61699599	0.0642521	0.64912472
0.61859885	0.56467915	0.6201961
0.0986205	0.31423764	0.63727045
0.14107868	0.81904689	0.6429164
0.1118122	0.05916971	0.1388309
0.11259239	0.56179416	0.13378464
0.62187819	0.29981741	0.1277483
0.63734376	0.80084091	0.13621229
0.62158027	0.05949198	0.64613502
0.60734226	0.56214021	0.62145643
0.09505077	0.31597293	0.63080629
0.15766924	0.81770677	0.63775539
0.11292313	0.0539952	0.14104529
0.11251474	0.56558383	0.14170463
0.61804624	0.2976583	0.13285686
0.63114311	0.8110917	0.12441323
0.62602541	0.05486527	0.64366125
0.60671872	0.56171427	0.6178499
0.1115989	0.3141625	0.63085244
0.16347582	0.81448344	0.6235545
0.11530242	0.05542213	0.14691552
0.12458962	0.5631666	0.14958432
0.61382375	0.29794329	0.13047118
0.62778508	0.81506712	0.12243982
0.61811713	0.05706445	0.64412276
0.60803603	0.56383626	0.61870075
0.11854106	0.31384217	0.63064621
0.15211363	0.81212723	0.61843141
0.1143473	0.06016612	0.14928039
0.13467679	0.55925868	0.14212755
0.61735681	0.30157473	0.12549825
0.62946015	0.80968996	0.12522243
0.60921025	0.06199572	0.64603366
0.59978398	0.56501182	0.62225665
0.10868511	0.31802808	0.62687146
0.14231572	0.81516158	0.62445813
0.11329842	0.06339632	0.14372301
0.1370092	0.55852576	0.13093395
0.62281151	0.30676199	0.12807994
0.62947411	0.80677965	0.12500404
0.61003997	0.06102806	0.64417539
0.60044059	0.56179875	0.61973453
0.10344268	0.32024186	0.62637782
0.14181794	0.81993438	0.62464751
0.11438198	0.06130781	0.13633819
0.1353533	0.56062425	0.13705105
0.62128407	0.31105121	0.13846704
0.62937789	0.81061354	0.1218566
0.61466757	0.0600699	0.63520555
0.61421754	0.55518725	0.61257263
0.11347489	0.31827272	0.63582704
0.14647297	0.82159502	0.61661123
0.11674512	0.06065202	0.1377232
0.1317536	0.5615114	0.14750178
0.62253688	0.31253182	0.14577731
0.63016315	0.81228437	0.11959784
0.6144298	0.06285272	0.62684263
0.61913858	0.55209524	0.61531092
0.12481166	0.31626801	0.64258467
0.14699966	0.82078122	0.61643973
0.11882498	0.06590783	0.14324759
0.13254708	0.55920288	0.13570668
0.63186134	0.31063737	0.14129536
0.63506636	0.80605117	0.11964351
0.61012878	0.06305638	0.6284741
0.61098233	0.56039708	0.62431643
0.12219025	0.31831925	0.63854827
0.13911339	0.8204612	0.62501276
0.11949601	0.0681885	0.13879908
0.1361244	0.55747216	0.11754195
0.63425019	0.31049186	0.13123199
0.64036987	0.80355596	0.11575616
0.60603327	0.0596886	0.63849765
0.60326684	0.56652011	0.6260281
0.10945419	0.3240917	0.62824616
0.12243403	0.82109096	0.62640344
0.12121339	0.06550631	0.12970749
0.13241053	0.56060548	0.11652627
0.6212418	0.31382545	0.12793455
0.64271929	0.81027794	0.11308386
0.61058034	0.05784667	0.63870295
0.61627899	0.56088686	0.62319168
0.10056141	0.32710873	0.61995674
0.1134145	0.82056248	0.62081207
0.12413801	0.06063223	0.12319428
0.12293045	0.56248285	0.12212929
0.60851693	0.31609435	0.12944605
0.6422166	0.81711069	0.11523251
0.62245022	0.06059246	0.62194643
0.63731304	0.55801504	0.62397154
0.10177574	0.3224276	0.62138085
0.1168254	0.81933194	0.61429613
0.12709355	0.05916848	0.12297336
0.11291966	0.5603608	0.11898331
0.60871257	0.31466254	0.12610434
0.64519939	0.8138699	0.1066428
0.6229687	0.06610219	0.61075776
0.64250699	0.564596	0.62586916
0.10622189	0.31529971	0.63323087
0.11841749	0.81988045	0.61022985
0.12527534	0.06381581	0.12686691
0.10972188	0.55972393	0.10952861
0.6198161	0.31405916	0.12014013
0.64769674	0.80771325	0.09626918
0.61389393	0.06786249	0.6220126
0.62780257	0.56908787	0.62808353
0.1080366	0.31430874	0.64099478
0.1110175	0.82125112	0.61112295
0.11993766	0.06636988	0.13082473
0.11676412	0.56221217	0.10906768
0.6298269	0.31531253	0.11854902
0.63994901	0.80658836	0.10434707
0.60543116	0.06450316	0.62988207
0.61538219	0.56493411	0.62929782
0.10922312	0.31866177	0.63498685
0.10311622	0.82034222	0.61664947
0.12361033	0.06206728	0.12457677
0.1322831	0.56572499	0.11562262
0.62808893	0.313658	0.12330199
0.62935053	0.81075133	0.1268116
0.60812695	0.06426382	0.62205176
0.6172829	0.56028396	0.63124168
0.11806038	0.31947377	0.62600824
0.10525217	0.81648357	0.61991278
0.12803603	0.05715393	0.11048644
0.14411801	0.56492516	0.11817097
0.62386152	0.30924556	0.12756129
0.63158852	0.81462595	0.14433422
0.61703573	0.06907908	0.61063882
0.6325816	0.56404063	0.63378432
0.12991282	0.31503131	0.62680464
0.12208565	0.81349645	0.61799072
0.12169245	0.05618598	0.10178472
0.13890991	0.56085982	0.11021628
0.63513048	0.30809956	0.12404894
0.64163459	0.81411306	0.13988653
0.6180699	0.06807483	0.61283667
0.63568789	0.57198575	0.6350426
0.1308564	0.3158579	0.62655081
0.13828132	0.81415003	0.61892796
0.11821336	0.05796263	0.10169793
0.12597582	0.55606419	0.09849425
0.64580137	0.31181265	0.11371611
0.63915156	0.8086666	0.12531586
0.61183893	0.06268439	0.62968864
0.62461759	0.57573978	0.63399464
0.11483616	0.31996763	0.6170343
0.14350187	0.81608569	0.62798674
0.13225932	0.05834345	0.10869336
0.12001357	0.55279843	0.10097875
0.63864039	0.31277968	0.10983285
0.6284709	0.8045232	0.12742077
0.61690198	0.06538276	0.63846015
0.62075257	0.57118455	0.62747452
0.10764815	0.31588056	0.60735003
0.14065703	0.81574886	0.63426249
0.14207818	0.0535175	0.11009256
0.12192458	0.55182048	0.11475478
0.62358542	0.30675441	0.1141272
0.62207162	0.80640935	0.14436741
0.62649636	0.07331128	0.62544009
0.63356574	0.56560371	0.6169313
0.11764177	0.31084258	0.6077299
0.14359527	0.81400769	0.63035545
0.13727487	0.05146184	0.10556365
0.12479759	0.55269119	0.12176151
0.61211153	0.3045423	0.12035199
0.62192452	0.81165684	0.14318753
0.625053	0.07433198	0.61284567
0.64193051	0.56552874	0.61124121
0.12653142	0.31281183	0.6102897
0.14921436	0.81393727	0.61890451
0.13394212	0.05819415	0.10328688
0.11910106	0.55624353	0.11272326
0.61085503	0.30911156	0.12317513
0.62471605	0.81123719	0.13272473
0.60484124	0.06888822	0.62051138
0.63822375	0.56576376	0.61138968
0.12360884	0.31641235	0.61142105
0.13958507	0.81577437	0.61719973
0.13383605	0.06374068	0.10628197
0.11249638	0.55938712	0.10795092
0.6227989	0.31019436	0.12476047
0.62464171	0.80559631	0.12973194
0.60180569	0.06440825	0.63263157
0.62855296	0.56166569	0.61584695
0.11678286	0.31502713	0.61269627
0.12230592	0.8171476	0.62512614
0.13275538	0.06025809	0.11172237
0.12341456	0.5586672	0.11710878
0.63243469	0.30555945	0.12306013
0.6219613	0.80270534	0.13579421
0.6143109	0.06542421	0.62820748
0.62371746	0.56069907	0.62393009
0.12500114	0.3118781	0.61460421
0.13262858	0.81858956	0.63275278
0.12551234	0.05348034	0.11460047
0.13240639	0.55520008	0.12808559
0.62466536	0.29953403	0.11561875
0.62088711	0.80270084	0.13540318
0.62348127	0.06708279	0.6071187
0.62518756	0.56577355	0.63290146
0.13913496	0.31275764	0.61343448
0.15059054	0.8205136	0.63732893
0.11551553	0.0525523	0.11103977
0.12701776	0.55204861	0.11936406
0.61241024	0.2959901	0.10995589
0.62379402	0.80218678	0.12254456
0.62131093	0.06499626	0.5975072
0.62977805	0.56524537	0.6388309
0.1327475	0.31748197	0.61096835
0.15126895	0.82041654	0.63324903
0.11393792	0.055784	0.10959885
0.11818335	0.55354432	0.10634351
0.61886792	0.29432154	0.11398079
0.6242621	0.79941714	0.11084217
0.61561937	0.05823943	0.61899179
0.63046649	0.56421384	0.63698044
0.11401446	0.32168352	0.61484111
0.13973236	0.81723258	0.62293069
0.12416597	0.05588078	0.11770811
0.11864154	0.55678472	0.106903
0.63522032	0.29382885	0.11285025
0.61672206	0.79533936	0.11458753
0.62284791	0.05173276	0.63861537
0.62434316	0.56531993	0.63114451
0.11040825	0.32250789	0.61588541
0.12755297	0.81134339	0.61105053
0.13263321	0.05654572	0.12658467
0.13033543	0.56055256	0.1204325
0.62826213	0.29429539	0.10732047
0.60727392	0.79622632	0.11983826
0.63865085	0.05579138	0.62874042
0.61663168	0.56103091	0.62640141
0.12498212	0.32110003	0.61189856
0.11738309	0.81052762	0.60637268
0.13087895	0.06200443	0.12356473
0.13967401	0.56600304	0.12888487
0.61033096	0.29503576	0.11111409
0.60794689	0.80211434	0.11343198
0.648241	0.06373293	0.60982257
0.61182695	0.55489989	0.62680758
0.13901594	0.32029397	0.6061738
0.11169768	0.81838412	0.60294206
0.12401883	0.06718645	0.11194919
0.14047091	0.56707537	0.1210629
0.60749383	0.29564702	0.12287909
0.61759943	0.80522034	0.10148813
0.63844689	0.06351323	0.61149141
0.60892827	0.55344586	0.62936504
0.1392527	0.32019193	0.60669494
0.10765716	0.82015517	0.59978002
0.11796203	0.06913394	0.10913984
0.134934	0.56104066	0.10836314
0.61524872	0.29611118	0.12963045
0.6136402	0.80140689	0.09960828
0.62322392	0.05681257	0.62404952
0.60451076	0.55771239	0.62732556
0.13060445	0.31857905	0.61231085
0.10533164	0.81675842	0.60336864
0.11458233	0.06631974	0.12761049
0.1302745	0.55848873	0.10280868
0.61659497	0.29560933	0.12694854
0.60753712	0.79684534	0.10949193
0.62185435	0.05520178	0.62911778
0.59814098	0.5612684	0.61737644
0.12817189	0.31577466	0.61349743
0.11147158	0.81769271	0.61284069
0.10871433	0.05995728	0.1425568
0.13190009	0.56001293	0.1075218
0.60975136	0.29551539	0.11967905
0.62634626	0.79853802	0.11996441
0.63439965	0.05572575	0.62074818
0.59435541	0.55734773	0.61628193
0.13369331	0.31490579	0.61589071
0.1187444	0.82250673	0.61835503
0.09814373	0.05720773	0.13652009
0.13108119	0.56010543	0.11256666
0.60717087	0.29780579	0.11583393
0.63953392	0.80078774	0.12207771
0.64057434	0.05432698	0.6167495
0.60624451	0.55209699	0.62040156
0.13361179	0.3160894	0.6191638
0.12038329	0.82092266	0.61426446
0.09562416	0.05656196	0.12914893
0.11866357	0.55718898	0.10658052
0.61676927	0.30111154	0.11551192
0.63009636	0.79836511	0.11544854
0.6293593	0.05215241	0.62833031
0.630333	0.55503605	0.61243717
0.12397777	0.31709064	0.61581443
0.112172	0.81605707	0.60582136
0.10271445	0.05415724	0.13449385
0.10570706	0.55695434	0.10723279
0.64034247	0.30465693	0.11559139
0.61452199	0.79406945	0.1137068
0.61980708	0.05239837	0.64679941
0.64734937	0.56218465	0.5978368
0.11928968	0.317124	0.61307706
0.10179132	0.8174623	0.6071149
0.10818989	0.05165771	0.13787147
0.10517537	0.56237034	0.10967846
0.6529985	0.30866189	0.11653496
0.61374312	0.79538011	0.1223076
0.62509141	0.05459317	0.65139778
0.64579915	0.56526819	0.59278562
0.12820523	0.31608895	0.61062754
0.09967523	0.82358229	0.61901297
0.11050672	0.05182322	0.13024626
0.11726144	0.56904917	0.10711928
0.64064422	0.31217875	0.11984075
0.62190319	0.80404803	0.12648047
0.63841495	0.05702326	0.63940809
0.62656288	0.56098573	0.60033135
0.13843691	0.31497727	0.60608011
0.10544728	0.82501926	0.63290266
0.11859879	0.05583804	0.12036519
0.12497991	0.57022637	0.10881517
0.61964395	0.31068317	0.12045399
0.61893732	0.81156448	0.12233891
0.63918874	0.058889	0.62096658
0.62040173	0.55552662	0.60665839
0.14076168	0.3143883	0.60685391
0.10467505	0.82062234	0.63619358
0.12889005	0.06161375	0.1192904
0.11403688	0.56525634	0.11590365
0.61122983	0.30478395	0.11183781
0.6011346	0.80910731	0.11830298
0.62049646	0.06110516	0.60438509
0.6311447	0.55498148	0.5997079
0.13771436	0.31519211	0.62416327
0.10118561	0.8143175	0.62880011
0.13054713	0.06494578	0.12471349
0.0972086	0.55902188	0.12298862
0.61722894	0.3017979	0.11429043
0.58994374	0.80280225	0.12158188
0.61705965	0.06341269	0.59902798
0.63726505	0.55989569	0.59343265
0.13924578	0.31700388	0.63480138
0.10213347	0.81111931	0.62596553
0.11992388	0.06590157	0.1255683
0.09324117	0.558031	0.12375179
0.62979514	0.30293148	0.11517794
0.59354521	0.80486363	0.12403442
0.63268911	0.06400652	0.60017408
0.62790096	0.55959531	0.5967205
0.14418305	0.3190538	0.62858695
0.10553261	0.811427	0.63615751
0.11335552	0.06779268	0.11619701
0.10834909	0.56182771	0.12089565
0.64104714	0.30621142	0.10277923
0.59894917	0.81389752	0.11613543
0.63605126	0.06482643	0.59320914
0.62096917	0.55587975	0.60486224
0.13994586	0.3221271	0.61991517
0.10689872	0.81128939	0.64384816
0.12720765	0.07032116	0.107191
0.12935933	0.55997911	0.12040978
0.64104906	0.30784119	0.09660972
0.60507561	0.81754031	0.10976697
0.61806627	0.0648617	0.58451808
0.62656815	0.55979322	0.61288652
0.12910789	0.32286523	0.61941679
0.10476472	0.8092967	0.63623749
0.14993133	0.07098447	0.10509266
0.13918222	0.55527548	0.1209545
0.63639952	0.30938164	0.10964363
0.60203137	0.81295393	0.11553956
0.60197486	0.06598273	0.59164077
0.63337547	0.56560446	0.61954355
0.12919369	0.32052737	0.62827085
0.10382887	0.8091518	0.62748907
0.15073799	0.06833311	0.11054361
0.13106998	0.55736463	0.12051024
0.63659059	0.3126488	0.12579523
0.59118719	0.80934399	0.12430655
0.60425461	0.0662542	0.61142626
0.62540488	0.56700927	0.62489102
0.13800522	0.31968371	0.63431523
0.10913866	0.81129264	0.62869172
0.1384101	0.06612794	0.11785549
0.12582464	0.56133248	0.11987093
0.64305007	0.3145328	0.13153145
0.59202377	0.81207742	0.1239829
0.62368354	0.06392507	0.62584025
0.61658377	0.56518713	0.62559735
0.13974499	0.31987742	0.63041178
0.11580005	0.81310179	0.63765268
0.13926107	0.06785749	0.12093088
0.13279905	0.56216873	0.12257928
0.64264535	0.31226822	0.12060605
0.60627782	0.80990189	0.11580084
0.63565833	0.05828093	0.62554058
0.61227786	0.56205103	0.62148017
0.13262876	0.31896347	0.62380956
0.11470418	0.81495238	0.64201273
0.15243872	0.07027231	0.12391573
0.132226	0.56182311	0.13033725
0.6350375	0.30810075	0.10151211
0.61544002	0.80563315	0.11147788
0.62809923	0.05345184	0.62325331
0.61137139	0.55983235	0.6212376
0.13223015	0.31666383	0.62719376
0.11083669	0.8184586	0.63688107
0.15554627	0.06866684	0.12513535
0.11829819	0.56607498	0.1393409
0.63638021	0.30404347	0.08922326
0.61321172	0.80303263	0.12324835
0.62064199	0.05328869	0.62146521
0.61309724	0.55990312	0.62832168
0.1443853	0.31601106	0.63836587
0.11477807	0.81680971	0.62722399
0.14213081	0.0655086	0.11743623
0.11461227	0.57476404	0.14162274
0.64054888	0.30002047	0.09929592
0.61202367	0.80288509	0.13785039
0.62629787	0.05825934	0.61865476
0.61729741	0.55917499	0.63275599
0.14847272	0.31884368	0.64119036
0.12711503	0.81335628	0.62269845
0.12070521	0.06732993	0.114393
0.12208828	0.57950242	0.13470323
0.64252981	0.29909168	0.12891816
0.62192969	0.80296237	0.1423234
0.6367326	0.06110113	0.62171892
0.6215184	0.55548579	0.6298512
0.12824694	0.32049984	0.63006179
0.13342803	0.81885382	0.62385641
0.10531892	0.0714777	0.12527848
0.12900204	0.57616141	0.1255095
0.6388185	0.30365983	0.14592861
0.6292207	0.80388551	0.13999524
0.63929466	0.05965792	0.63098696
0.62382397	0.55412276	0.62630674
0.11110369	0.31752861	0.61965866
0.13202899	0.82651803	0.62600637
0.11010185	0.0721389	0.1311429
0.12713761	0.57141928	0.12684981
0.62907404	0.31135138	0.13008116
0.62359353	0.80688398	0.14060987
0.62914391	0.0580798	0.63937927
0.62744075	0.55858681	0.63630186
0.1166438	0.31465812	0.62413898
0.13238688	0.82652138	0.62330107
0.13000854	0.06880078	0.11976063
0.12179635	0.57149243	0.13859353
0.62074225	0.31355234	0.11636317
0.61811719	0.80855402	0.14431671
0.62383789	0.05910123	0.64070235
0.62922439	0.56402977	0.6453306
0.12933053	0.31402687	0.63026399
0.13562583	0.82088936	0.61731954
0.1321169	0.06730325	0.10723857
0.12140172	0.57173633	0.14276125
0.61886624	0.30829588	0.13020649
0.6205163	0.80783225	0.14114147
0.63300186	0.06133183	0.6356958
0.62887542	0.56308084	0.64289722
0.12945166	0.31622422	0.62801058
0.14092435	0.81657333	0.6199606
0.11286873	0.07032153	0.10956482
0.12303498	0.5658898	0.13713203
0.6221558	0.30416071	0.15329076
0.62784715	0.80549983	0.13006436
0.64617419	0.06101793	0.63124532
0.62839247	0.55688822	0.64486885
0.11621862	0.31763576	0.62216417
0.14354165	0.8175399	0.62608795
0.1140245	0.06947229	0.12182234
0.12633731	0.55995735	0.14657069
0.62618906	0.30337211	0.15043043
0.63209773	0.80362171	0.12434203
0.64802769	0.05761349	0.63098242
0.62571125	0.55346136	0.64389578
0.10604768	0.31697902	0.62265103
0.13767245	0.82087146	0.62068956
0.13211114	0.06399202	0.12587606
0.13001197	0.56045182	0.16222982
0.63096205	0.30561331	0.12716466
0.6280615	0.80239973	0.13248571
0.63540092	0.05454397	0.63082123
0.62396332	0.55736713	0.63875308
0.11036439	0.31828889	0.63134629
0.12944674	0.82402582	0.62054607
0.13649786	0.06081695	0.11941531
0.13145607	0.56484956	0.15270011
0.63717231	0.30964034	0.13263699
0.62518173	0.80219646	0.13984776
0.61428713	0.05586726	0.6239145
0.62886974	0.56002506	0.63600021
0.11344478	0.3227297	0.63665187
0.13474015	0.82424212	0.62945421
0.12114493	0.05961093	0.11344139
0.13322904	0.5673401	0.13374751
0.63961061	0.31039559	0.15080936
0.632351	0.80570324	0.13721688
0.60385033	0.06090032	0.61503999
0.63575257	0.5568001	0.63505217
0.10501034	0.32318508	0.63173601
0.14202028	0.82038046	0.62760697
0.11170851	0.05859183	0.11541585
0.13858018	0.56185363	0.13020954
0.63244175	0.3076705	0.14317414
0.64142253	0.81217343	0.13316601
0.61357798	0.06377581	0.61734287
0.63647233	0.55556258	0.63586466
0.09536709	0.31752604	0.62352566
0.13997415	0.81912413	0.61996524
0.12106671	0.0581815	0.12785479
0.14303666	0.55409133	0.13224387
0.61396785	0.30782076	0.12545364
0.64250154	0.8138746	0.13458316
0.62219037	0.06203545	0.63043145
0.62641143	0.56380149	0.64069741
0.1027581	0.31281108	0.62666431
0.1359671	0.82043881	0.61951438
0.13004021	0.05563652	0.1350927
0.13809708	0.55339908	0.12573514
0.60128065	0.31340264	0.12164642
0.64185013	0.8091316	0.13523339
0.60826377	0.06379999	0.63463639
0.6163152	0.57095504	0.64975793
0.1233378	0.31353747	0.64161865
0.13982096	0.8189157	0.62556654
0.12801109	0.0528754	0.13181564
0.12654546	0.55879084	0.11716953
0.60667833	0.31717548	0.1285179
0.64392456	0.80789945	0.12320785
0.60242301	0.06962559	0.6239212
0.62586979	0.5719599	0.65586715
0.13189414	0.31452528	0.6509134
0.14572153	0.81286385	0.63435511
0.12378541	0.05468551	0.13143184
0.1222053	0.5595996	0.12336984
0.61581192	0.31163469	0.13550104
0.64852244	0.81165668	0.12177932
0.6177934	0.07008637	0.61269636
0.63618793	0.56979688	0.65243883
0.12146917	0.31348247	0.6473629
0.14285323	0.80695996	0.63999527
0.12305435	0.0532337	0.14050901
0.13330923	0.55355222	0.13961879
0.61584744	0.30353992	0.1310858
0.64962446	0.81385798	0.13459658
0.63327781	0.06746533	0.61500039
0.63526035	0.56993128	0.6435946
0.11551467	0.31533745	0.63748272
0.13432086	0.80777809	0.63852588
0.11989883	0.04780476	0.15159891
0.13151609	0.55210858	0.1466147
0.61057766	0.30569265	0.12020628
0.6456233	0.81069275	0.12875898
0.63190942	0.0686076	0.62147131
0.63631462	0.57275394	0.63579063
0.1234101	0.3199544	0.6305107
0.12895579	0.81288558	0.6292296
0.1109678	0.04220776	0.15006441
0.11914478	0.55697136	0.13366822
0.61014022	0.31297484	0.11630238
0.64873562	0.80785173	0.11634065
0.61839882	0.07401715	0.62194873
0.63615097	0.57299212	0.62958458
0.13462217	0.32020984	0.62848544
0.12950842	0.81246202	0.63275395
0.10594446	0.0397334	0.1397446
0.12647179	0.56156652	0.1165365
0.61741154	0.31157741	0.12335353
0.65886463	0.81029356	0.11942106
0.6080495	0.07622965	0.61943874
0.63210712	0.57070755	0.62305817
0.13432557	0.31408716	0.62774378
0.13265018	0.80687443	0.64540062
0.10789136	0.0471996	0.13143091
0.13775584	0.56123361	0.11857209
0.62889805	0.30751737	0.13118844
0.66632056	0.81384654	0.13397444
0.61085888	0.07688711	0.6200743
0.62773881	0.57125526	0.62057373
0.12036668	0.30831034	0.62618849
0.13360685	0.8049016	0.64443704
0.1090123	0.05554181	0.13208515
0.13447529	0.55660995	0.13532625
0.63447072	0.3092573	0.13016042
0.65706553	0.81455636	0.13886628
0.62034527	0.07685438	0.62720874
0.62436678	0.57310703	0.62292486
0.12085545	0.3108772	0.62320678
0.12614714	0.80922776	0.6284957
0.10480961	0.05587349	0.13852781
0.12236527	0.55284983	0.14396409
0.62873199	0.31151455	0.12060874
0.63952296	0.8132947	0.12871477
0.62396744	0.07289822	0.63515936
0.62405071	0.57016092	0.62179137
0.14258099	0.31481696	0.62390107
0.11451679	0.81329571	0.61953992
0.10458302	0.05111237	0.1368956
0.11785309	0.55588285	0.13935195
0.62095847	0.31172528	0.11455097
0.63179189	0.81067932	0.11709808
0.61828698	0.06997653	0.63221818
0.62379624	0.56698689	0.61841109
0.15005883	0.31443244	0.62874699
0.1077367	0.81367356	0.62819471
0.11203742	0.05232185	0.1298821
0.12840126	0.5615813	0.1258649
0.620081	0.30889186	0.1181591
0.63671793	0.80839467	0.12040409
0.61033721	0.07435018	0.6249965
0.63061643	0.56494989	0.61535034
0.13739925	0.31543504	0.63154746
0.1090435	0.81258573	0.63564823
0.11679747	0.06471229	0.13142505
0.1387509	0.55921675	0.12093877
0.62659125	0.30547474	0.12739239
0.64029588	0.80940588	0.13164088
0.6155247	0.07170044	0.62586736
0.63825116	0.56126537	0.61218863
0.11767681	0.31973331	0.62872966
0.11601796	0.81379267	0.62350513
0.11642023	0.07367325	0.13811876
0.13776799	0.551689	0.12909969
0.62870206	0.30404421	0.13068753
0.63527008	0.81243567	0.12842803
0.62869411	0.06133674	0.6334391
0.63710509	0.5565251	0.60822769
0.10241297	0.32089051	0.62633014
0.12652232	0.8203514	0.61071885
0.12231828	0.06910441	0.13903499
0.12656654	0.55453666	0.13215758
0.62172473	0.3040189	0.12094038
0.63061274	0.81025536	0.10847036
0.62326165	0.05768138	0.63862031
0.62567739	0.55680775	0.60227505
0.10020861	0.31580164	0.62778752
0.13390066	0.82847962	0.61446771
0.13181219	0.0643248	0.13246609
0.11697885	0.56443119	0.11874497
0.61858312	0.30317308	0.1207474
0.62909462	0.80577799	0.10163102
0.5984089	0.060777	0.64016309
0.61350787	0.55804953	0.6009292
0.10911039	0.31440579	0.62331543
0.13341563	0.83029178	0.62851528
0.13581718	0.07122795	0.1233142
0.12368782	0.56660793	0.10561547
0.62581744	0.30441182	0.14128476
0.62720797	0.80250113	0.122629
0.59086604	0.0635163	0.64111377
0.61153706	0.55754837	0.61018224
0.11129149	0.31804104	0.61236944
0.12703301	0.82082512	0.63175813
0.13570126	0.0749113	0.12308796
0.13633901	0.56512251	0.10178714
0.63211427	0.30938595	0.15361821
0.61749623	0.80166706	0.13510227
0.60612567	0.05971535	0.64253768
0.61339673	0.5600091	0.6212736
0.09913846	0.32003881	0.6118848
0.12789159	0.81450141	0.62091223
0.13404415	0.06888102	0.12863519
0.13455774	0.56523643	0.10440471
0.62959704	0.31007949	0.1437749
0.61005445	0.80094763	0.11670613
0.62788868	0.05132061	0.64019655
0.61166254	0.56399433	0.62150046
0.09265046	0.31711735	0.62470003
0.13372978	0.82126348	0.60561061
0.13490186	0.06139397	0.12534171
0.12092719	0.56769048	0.10745417
0.62063772	0.30673478	0.12090234
0.62110483	0.80054641	0.09426698
0.64052838	0.04352448	0.63061928
0.60970108	0.56227874	0.61693822
0.10062137	0.31374395	0.63499357
0.12892121	0.82778266	0.60041978
0.13664474	0.05793977	0.12018957
0.11710451	0.5707743	0.1069174
0.61720578	0.30488988	0.1181998
0.62807257	0.7990666	0.09182323
0.6346836	0.04277122	0.62301661
0.61514469	0.55707801	0.61613086
0.11298562	0.31488337	0.62842288
0.119991	0.82497852	0.60515136
0.13830691	0.06040467	0.12027294
0.12583942	0.56988143	0.10544411
0.62284506	0.30583616	0.12872731
0.62151881	0.79585919	0.11218654
0.62215216	0.05139185	0.62116467
0.62526827	0.55243308	0.63014784
0.11582571	0.32368888	0.61668298
0.11722664	0.8180234	0.6098818
0.13326579	0.06449278	0.11418329
0.12486552	0.56491488	0.10726602
0.62762081	0.30529837	0.1347375
0.61374248	0.79685454	0.13169162
0.62460141	0.05997891	0.62747966
0.62551471	0.55045105	0.64022913
0.10320471	0.32811316	0.61458782
0.12701447	0.81719665	0.6077016
0.12683086	0.06310518	0.10691278
0.11195208	0.56181661	0.10759286
0.61799038	0.29914594	0.13174437
0.61338684	0.79917157	0.12784798
0.6438791	0.059627	0.63417685
0.61897297	0.55499997	0.62449745
0.09560166	0.32688385	0.61614738
0.1430191	0.82401533	0.60302497
0.13583653	0.05565368	0.10733598
0.10465491	0.56638479	0.10380469
0.61432323	0.29098316	0.1240763
0.6198665	0.79676816	0.11027916
0.65253322	0.05484935	0.63688922
0.61568522	0.56202452	0.60368824
0.11714985	0.32574058	0.61187972
0.15417733	0.82618223	0.60320593
0.1484717	0.05285847	0.11066238
0.11237702	0.57356015	0.10253531
0.6227314	0.2899458	0.1204609
0.62949065	0.7937103	0.10862699
0.64299062	0.05559274	0.63611969
0.61615916	0.5642597	0.60711291
0.13756102	0.32489118	0.60649847
0.1471556	0.81987993	0.609572
0.14567427	0.05616773	0.11202695
0.12018278	0.57296154	0.10130723
0.62398343	0.29467536	0.12527199
0.62927112	0.79598047	0.13202914
0.62843914	0.06694052	0.62685708
0.61495107	0.56070606	0.62455377
0.13851554	0.32622046	0.60627771
0.12784891	0.81425103	0.61310812
0.12630249	0.06074053	0.11458324
0.11991361	0.56449984	0.11203515
0.61855992	0.29679208	0.12871253
0.61539399	0.79967824	0.1376491
0.62319393	0.07208368	0.61843301
0.61721112	0.55901244	0.62965841
0.13413705	0.32721028	0.61293968
0.1135372	0.81416591	0.60862043
0.10783242	0.0620548	0.12086001
0.11713207	0.55716482	0.1323106
0.61483281	0.29119244	0.11982215
0.60356273	0.80075944	0.12139665
0.62858391	0.06249422	0.61260776
0.62261374	0.5621877	0.61092852
0.14144276	0.32542889	0.62007412
0.11710428	0.81842209	0.60524845
0.10950774	0.06063444	0.12590827
0.11788561	0.55542443	0.14220242
0.61758175	0.28811687	0.10510765
0.60790802	0.79808034	0.10997713
0.62847886	0.05564653	0.61016334
0.62623396	0.56566334	0.59801991
0.14802456	0.3224526	0.62528108
0.13178425	0.82099218	0.60652399
0.11609054	0.0590966	0.12458499
0.11743362	0.55688863	0.14164045
0.6241343	0.29379551	0.10577373
0.61872852	0.79713682	0.11390974
0.61943615	0.06242619	0.60945029
0.62887259	0.56221073	0.60996583
0.14362421	0.32305675	0.62003918
0.12988683	0.81549904	0.61294465
0.11523815	0.0602791	0.11614648
0.11234	0.55734686	0.13586843
0.6241039	0.3054531	0.11612036
0.61752501	0.80042198	0.12287422
0.61674053	0.07360026	0.61105481
0.63126207	0.55563932	0.63076355
0.13091218	0.32247235	0.60471786
0.11625209	0.80920156	0.62305825
0.11021031	0.06127862	0.10665558
0.10788223	0.5537568	0.12695094
0.61801232	0.3088141	0.1137563
0.60247813	0.80304271	0.12562298
0.61479149	0.07622209	0.61546658
0.6333497	0.55759899	0.63667035
0.12098415	0.31794651	0.60012155
0.11434721	0.81270505	0.63334828
0.10907892	0.06036415	0.1041519
0.10894161	0.55082141	0.11770563
0.61664674	0.30143628	0.09684731
0.59693302	0.80404995	0.12081576
0.61230505	0.07069987	0.6168382
0.63208113	0.57020501	0.62649598
0.12069986	0.31399762	0.61599094
0.12288826	0.82089393	0.64029948
0.11770747	0.05894641	0.1119158
0.11424079	0.55370422	0.10757975
0.62482774	0.29634201	0.0902917
0.61148889	0.80459455	0.11515702
0.61346942	0.06346391	0.61465073
0.62728644	0.57213206	0.61223488
0.12698178	0.31069994	0.62783574
0.118949	0.82534494	0.64446784
0.12183319	0.05946471	0.12108276
0.11355127	0.55924142	0.10228876
0.63041213	0.30888368	0.09747693
0.61850958	0.807444	0.11878158
0.61537205	0.06678095	0.61068149
0.61643969	0.5665915	0.60612708
0.13370852	0.30867375	0.61966742
0.10252952	0.81799048	0.63807077
0.11268682	0.06121289	0.1214899
0.11102344	0.55962242	0.116676
0.63301	0.32206813	0.10282418
0.60988807	0.80955232	0.12457265
0.61524466	0.07522082	0.61277341
0.6153735	0.56291343	0.61188148
0.13250572	0.30900164	0.60397017
0.0929554	0.80981417	0.63557842
0.10587522	0.06158461	0.11500564
0.11875372	0.55741621	0.14162442
0.63231582	0.31769696	0.09895529
0.6002202	0.80642714	0.12492218
0.6153164	0.07000055	0.61701682
0.63033473	0.56111425	0.61904877
0.125493	0.31039515	0.60303966
0.10702183	0.80743896	0.64447155
0.10997866	0.05979662	0.1165796
0.12879162	0.55423631	0.14379766
0.63416966	0.30998741	0.09532645
0.59962812	0.80598211	0.12131659
0.62127757	0.05471535	0.61559298
0.6378822	0.56092563	0.61460278
0.12236588	0.30993151	0.61512144
0.11670651	0.81620238	0.65186496
0.11869628	0.05533657	0.12403597
0.12760883	0.55685623	0.13376807
0.6394391	0.31364158	0.10126494
0.60534237	0.81098368	0.12182804
0.62927672	0.05522343	0.60675799
0.627809	0.56002403	0.60327918
0.1261391	0.30844272	0.62292657
0.11277205	0.8206106	0.64281538
0.12720739	0.05299832	0.12367925
0.12115736	0.56222502	0.13140266
0.64965937	0.32113042	0.10683096
0.60696036	0.81392445	0.12633517
0.63324588	0.06367048	0.60606383
0.61598958	0.55862854	0.60662688
0.12364329	0.30857776	0.6153625
0.10586625	0.81649716	0.63480578
0.1305568	0.05298174	0.11857736
0.12519685	0.56558104	0.14345361
0.65519231	0.32206472	0.10102776
0.60251988	0.81347347	0.12996863
0.63315487	0.0625369	0.61231457
0.62042017	0.56030293	0.62198283
0.11280051	0.31329352	0.61372938
0.10373288	0.80823324	0.64164724
0.12880832	0.05578604	0.1210666
0.13194014	0.56197999	0.14983476
0.64479197	0.31381803	0.09746424
0.60077336	0.81321676	0.13038917
0.62965178	0.0518446	0.61787543
0.63592898	0.56509543	0.62763355
0.10812412	0.31985503	0.62683226
0.10028589	0.80880293	0.6453195
0.12438436	0.06096186	0.12753749
0.13389035	0.55857957	0.13623719
0.63041816	0.30501237	0.10900681
0.60498393	0.81576822	0.12804953
0.62472935	0.04774424	0.619691
0.63527424	0.57026119	0.61667299
0.11711859	0.32071667	0.64466618
0.10197578	0.81335374	0.63960501
0.12183154	0.06633424	0.12921562
0.13155351	0.56173148	0.12355213
0.62873119	0.30421496	0.13092538
0.6106737	0.81663456	0.12613957
0.62531465	0.05755337	0.61853983
0.6233689	0.57149941	0.61040122
0.13093883	0.31555741	0.64818552
0.11300592	0.81421197	0.63838597
0.12401787	0.06777727	0.13100097
0.1291452	0.56862666	0.12640608
0.63864112	0.30830808	0.14391328
0.6140713	0.81439546	0.13315905
0.63470433	0.06629754	0.61276662
0.61755085	0.56666344	0.61399217
0.14506246	0.31714993	0.63872827
0.12373177	0.80996934	0.64263343
0.12512073	0.06668537	0.13543938
0.13521706	0.57099988	0.13007877
0.63099634	0.30819567	0.1375225
0.61398756	0.8109301	0.14861095
0.63998243	0.06184725	0.6094196
0.626953	0.56219516	0.62665667
0.14898212	0.32462428	0.62978269
0.12323502	0.808866	0.64219457
0.12259785	0.07190124	0.13716325
0.1501216	0.56606218	0.12996677
0.62059905	0.29803398	0.12808277
0.60880838	0.80825748	0.15204717
0.63273456	0.05499281	0.61412991
0.63678979	0.56302389	0.63489018
0.14404077	0.32657672	0.6317882
0.1189718	0.81419563	0.63055803
0.12306323	0.07766119	0.12766637
0.15138237	0.56345945	0.12587283
0.62049196	0.29445579	0.1375648
0.60777623	0.80768905	0.13509189
0.62742255	0.05754631	0.62113597
0.63391103	0.56478966	0.63525599
0.13917127	0.32047143	0.641213
0.12610724	0.81939729	0.61752996
0.13167868	0.07660556	0.1084294
0.13350937	0.56648556	0.12209592
0.62714372	0.30657303	0.15720251
0.61624888	0.80783986	0.11420996
0.63417825	0.06577575	0.6214093
0.61808789	0.5579658	0.64100673
0.133496	0.31448664	0.64410831
0.13805499	0.82008304	0.61738046
0.14249149	0.0686568	0.10332183
0.12039531	0.56714386	0.12853684
0.63194742	0.31262061	0.16386226
0.62602198	0.80761832	0.10572286
0.6350563	0.06964852	0.62150369
0.61206946	0.55078755	0.6545417
0.12824082	0.31824771	0.63664084
0.13995677	0.82088217	0.62331608
0.14256682	0.06167595	0.10989892
0.12499983	0.56164294	0.13696699
0.6267212	0.30854699	0.1545899
0.63588947	0.80446633	0.10237028
0.62176941	0.06621677	0.63121077
0.61785621	0.55447179	0.66286057
0.12662415	0.32609379	0.62873073
0.12643711	0.82443901	0.62399014
0.13485445	0.06262527	0.11056982
0.13003854	0.55739197	0.13267366
0.61208348	0.30491507	0.14239493
0.63809729	0.80488586	0.10120696
0.61750112	0.06254699	0.63982498
0.62595072	0.5669407	0.65128294
0.12947246	0.32333289	0.63328805
0.11576335	0.82730684	0.6216369
0.13197955	0.06922524	0.10202263
0.12350964	0.56352251	0.11521687
0.60568164	0.30754266	0.13798829
0.62952851	0.80881394	0.10888369
0.63092888	0.06536914	0.63487271
0.62103059	0.572157	0.63206412
0.13249162	0.31426064	0.63771621
0.12215409	0.8265841	0.61951023
0.13186782	0.07003287	0.09888731
0.11193387	0.57099649	0.10353692
0.61321936	0.31209435	0.14587237
0.62709293	0.81014637	0.12576649
0.64278507	0.07103432	0.62254232
0.61779892	0.56118773	0.62815917
0.13274841	0.31529108	0.63258642
0.12950849	0.82259138	0.61563439
0.12989315	0.05879475	0.11097967
0.11356956	0.56874215	0.10746045
0.62473126	0.31191223	0.14868559
0.6355805	0.80503585	0.13357491
0.64504089	0.07048959	0.62102342
0.63346364	0.55039712	0.64521527
0.129478	0.32557617	0.62131786
0.1309857	0.82001762	0.61271221
0.12418868	0.05127118	0.12894065
0.12421531	0.56293547	0.122959
0.62529877	0.30723575	0.13767198
0.64338015	0.79841922	0.12906038
0.63854681	0.06246194	0.63682984
0.64911076	0.5515837	0.65892895
0.12531251	0.32948066	0.61418299
0.13062369	0.82018443	0.6094891
0.11933124	0.05536652	0.13168817
0.12363142	0.56133231	0.13362695
0.61549498	0.30698675	0.13243893
0.635312	0.80104374	0.12746489
0.63083596	0.06255774	0.6496271
0.63942248	0.55773836	0.65977596
0.12252593	0.32287475	0.61585764
0.13007964	0.82183747	0.60098134
0.11641551	0.06134898	0.11760236
0.11101092	0.56403415	0.12633595
0.60745747	0.31149944	0.13617399
0.62387701	0.80811359	0.13266768
0.63410087	0.06603656	0.64094896
0.6256488	0.56312326	0.64226233
0.113906	0.31427371	0.62296931
0.12436733	0.8235233	0.5907257
0.11714033	0.05761828	0.12218319
0.10299736	0.56480438	0.11751901
0.6105831	0.31163679	0.14008403
0.62649017	0.80791061	0.13293205
0.63730601	0.05937574	0.62569381
0.62367359	0.5606709	0.62041026
0.10827193	0.30974421	0.6300434
0.11681917	0.8236046	0.59152039
0.1171066	0.04842825	0.13579615
0.10847489	0.56183811	0.12198136
0.6160811	0.30684917	0.13682814
0.63992445	0.80407492	0.12204684
0.6237505	0.05575076	0.62446854
0.62244305	0.55540834	0.61696707
0.11525923	0.30932985	0.62849607
0.11462081	0.82054182	0.60357306
0.11019142	0.04709051	0.13551244
0.11776532	0.55954359	0.13144418
0.61508704	0.30171748	0.12460978
0.64178351	0.80391393	0.10952897
0.60696358	0.05917721	0.63929012
0.6233556	0.55719285	0.63260177
0.12616257	0.31151106	0.62145779
0.12164799	0.81523907	0.61069804
0.10197468	0.05771995	0.13241951
0.11415554	0.56050778	0.13217225
0.60958187	0.30123168	0.11897615
0.62684002	0.80896005	0.10729605
0.60875719	0.06401482	0.64463669
0.6236489	0.56525238	0.63871878
0.12581981	0.31231896	0.61813437
0.12977418	0.81088358	0.61331491
0.10208811	0.06522162	0.14354309
0.10598993	0.56378676	0.12283489
0.60582819	0.30521938	0.12707815
0.62137216	0.81245829	0.11305475
0.62703194	0.06368191	0.6309954
0.61990842	0.56553595	0.62315093
0.12098331	0.30988075	0.62181902
0.12815561	0.80851559	0.61838285
0.11249156	0.0626306	0.16419062
0.11477818	0.56428245	0.11042534
0.61167301	0.30503088	0.13021192
0.63414778	0.80676138	0.11694833
0.63653203	0.05879304	0.62193261
0.62146856	0.55780873	0.60612214
0.12234869	0.31053125	0.6289973
0.12231754	0.80534768	0.62561974
0.11665049	0.05769781	0.16579927
0.12983915	0.55979866	0.1162161
0.62044669	0.30103655	0.1203727
0.64223501	0.79870234	0.11439594
0.627873	0.05552139	0.63505216
0.62624154	0.55532484	0.6108
0.12896147	0.31376801	0.63119542
0.12633681	0.80329484	0.63105686
0.10928586	0.06072895	0.15173629
0.13216701	0.55519029	0.13353288
0.61972355	0.30053465	0.10857906
0.6369097	0.80005748	0.1098255
0.61855787	0.05783578	0.64465628
0.62377126	0.56238679	0.62387792
0.1295714	0.31446182	0.62982951
0.13588411	0.80647316	0.63163736
0.10462649	0.06825356	0.14196658
0.12771571	0.55812622	0.14026936
0.61120386	0.30263499	0.11809293
0.62740941	0.809673	0.11668527
0.62078947	0.06107777	0.63003008
0.61279256	0.56845987	0.62418009
0.12004157	0.3105404	0.63677865
0.13107988	0.80974298	0.63394228
0.11494919	0.06811772	0.14113632
0.13043387	0.56048362	0.12972772
0.61495819	0.30247608	0.13056598
0.62459908	0.80958512	0.12201017
0.62004569	0.06133409	0.60863109
0.60111937	0.56597148	0.61176634
0.10855275	0.30513217	0.64158888
0.12149236	0.81015067	0.63902857
0.12755839	0.06010683	0.14330565
0.13977962	0.55909117	0.11986592
0.63149697	0.30032305	0.12238682
0.63299197	0.80246061	0.11201815
0.61307354	0.06000411	0.60707125
0.59982015	0.5616898	0.59937002
0.10970354	0.30546032	0.63553361
0.12566534	0.80943525	0.64180609
0.13065371	0.05633651	0.14272123
0.14430046	0.55830474	0.12588866
0.64488526	0.30073132	0.10586199
0.64161927	0.79884144	0.10895688
0.61034277	0.06036044	0.62048917
0.61149449	0.56278726	0.60320404
0.11963111	0.31229536	0.62522152
0.13591797	0.81096051	0.63830232
0.12846696	0.06240638	0.13618667
0.13812601	0.55912028	0.13995362
0.64289051	0.30377558	0.10248105
0.64209685	0.80384045	0.11893428
0.61433171	0.06124614	0.62765941
0.62455692	0.56751101	0.6156321
0.12564625	0.3172625	0.62180754
0.1397106	0.81363942	0.63033278
0.13064558	0.06921166	0.13204533
0.12899416	0.56073536	0.13673057
0.62847874	0.30511113	0.11475765
0.63830351	0.80968696	0.1238758
0.61959734	0.05928824	0.62387829
0.6290613	0.56776705	0.62267761
0.11656248	0.31632915	0.63256067
0.1329772	0.81583355	0.63403045
0.1340423	0.0653144	0.13225263
0.12730021	0.56069994	0.11792469
0.61705178	0.30469497	0.12567795
0.64019338	0.80553667	0.11551897
0.61987784	0.05761364	0.62231131
0.62611917	0.56047229	0.61820193
0.10633389	0.31495303	0.64808356
0.12291307	0.81784166	0.64384044
0.13461364	0.05736891	0.13039992
0.13383015	0.56022447	0.10954975
0.61806763	0.30550808	0.12022939
0.64316704	0.80199236	0.10972879
0.61647948	0.05935495	0.63118393
0.62697091	0.55611506	0.60794729
0.10334072	0.31777282	0.64543586
0.12283698	0.82067675	0.64161501
0.1299336	0.06035225	0.12474954
0.1383899	0.56396658	0.12271543
0.62506052	0.30759126	0.11013003
0.64198939	0.80847603	0.12340422
0.61566394	0.06096283	0.64259714
0.63763448	0.55861945	0.60952815
0.1116235	0.322658	0.63276736
0.13446826	0.82107175	0.63508283
0.12173022	0.06874387	0.11991946
0.13714837	0.56860486	0.13428934
0.62752627	0.3100004	0.1145663
0.63518061	0.81187572	0.14135301
0.61882529	0.05984895	0.64615643
0.64633123	0.5619386	0.62443141
0.11953142	0.32464802	0.63148778
0.14191217	0.81857989	0.62995214
0.11974923	0.06840968	0.1188996
0.13397866	0.56776222	0.12247169
0.62182898	0.31138604	0.12899371
0.6278941	0.80792884	0.14141517
0.61935619	0.05901985	0.63716111
0.64482134	0.56134831	0.62432913
0.1156723	0.31948935	0.6387823
0.13756967	0.8176647	0.62085338
0.12761394	0.06094255	0.12015189
0.12938482	0.56768018	0.10079374
0.61815325	0.31059755	0.13377855
0.62287096	0.80264913	0.12886416
0.61930787	0.06237233	0.63451369
0.64182926	0.55666859	0.60517896
0.10866097	0.31899105	0.63732893
0.13745618	0.82053689	0.61087587
0.13547619	0.05949278	0.12162595
0.12328606	0.57089267	0.09452663
0.62787329	0.31076626	0.12477262
0.62513837	0.80327105	0.12644215
0.62471887	0.0641301	0.63907658
0.64052211	0.55315313	0.60115173
0.11216219	0.32415422	0.62336553
0.15023932	0.82128286	0.60599026
0.13252413	0.06544485	0.12328441
0.12126119	0.57153868	0.11055097
0.63470682	0.31252082	0.12578594
0.63483315	0.80772861	0.13798543
0.62869326	0.05976922	0.64157009
0.63808919	0.55609723	0.61526606
0.11583665	0.32698156	0.60462307
0.16237212	0.82065043	0.608279
0.12512093	0.0704432	0.12339786
0.12251516	0.5688659	0.12644265
0.62753735	0.31141688	0.13583181
0.6291636	0.80962292	0.14385381
0.62308541	0.0560545	0.63350663
0.63709687	0.56036898	0.63367124
0.11235607	0.32428809	0.59896996
0.15494602	0.82251662	0.6130945
0.12207582	0.06968063	0.11811312
0.11960801	0.56438051	0.1249796
0.61749777	0.30802057	0.1374862
0.62072731	0.80739806	0.13022005
0.61858603	0.05662089	0.62747929
0.63321154	0.55963289	0.64298948
0.10087546	0.31981567	0.61365708
0.13608036	0.82510214	0.61670355
0.12808881	0.06710508	0.10877578
0.11587341	0.56295375	0.11632715
0.61819444	0.30649206	0.1311379
0.62621229	0.80641484	0.11404204
0.62148102	0.0592465	0.63274738
0.62174589	0.55519365	0.63796002
0.09614919	0.31890762	0.62260842
0.12665385	0.82419088	0.61727741
0.13426424	0.06520496	0.11228082
0.11647602	0.56363868	0.1203607
0.62429423	0.30755258	0.12711902
0.64114334	0.80987953	0.11493818
0.62680204	0.06017248	0.63706906
0.62106344	0.55413516	0.62407336
0.10732095	0.32364181	0.60576733
0.12970948	0.82101738	0.61388149
0.12974452	0.06442702	0.1273481
0.12135287	0.56238763	0.1341124
0.6263646	0.30739896	0.12142955
0.64117202	0.81230059	0.12472255
0.62150361	0.06013193	0.62929559
0.63232313	0.55832629	0.61948957
0.12468003	0.32399438	0.59179255
0.13062787	0.81723534	0.61098784
0.11529608	0.06430125	0.12919158
0.12433417	0.5599196	0.14009647
0.62473194	0.30475294	0.12038029
0.63257842	0.81002663	0.12367437
0.6060101	0.06246182	0.61675334
0.62756714	0.56163496	0.63488415
0.12176997	0.31564499	0.59887685
0.12440415	0.81656	0.61308194
0.10545115	0.06307068	0.11335454
0.12112005	0.55870659	0.12851022
0.62548667	0.30538608	0.12774253
0.62736133	0.80740569	0.11372581
0.59896521	0.06608188	0.61108644
0.60207741	0.56265028	0.64774938
0.11481342	0.31085085	0.61679991
0.11684896	0.81857321	0.61374089
0.10703304	0.06317811	0.10479975
0.11827263	0.55837709	0.1133668
0.62925242	0.3109803	0.13432809
0.63330879	0.8087667	0.11277598
0.60559099	0.06530549	0.61186991
0.57884818	0.56549771	0.63886781
0.12479622	0.31363235	0.6238337
0.11370979	0.81987864	0.61568702
0.11565513	0.0616661	0.11599914
0.12250442	0.55898521	0.12032174
0.63200525	0.31248048	0.13670741
0.64365202	0.81077944	0.12128624
0.62010447	0.06100012	0.61502616
0.58473718	0.56796819	0.6214338
0.13745173	0.31788994	0.61665426
0.11281156	0.8187949	0.61978367
0.12310842	0.05821874	0.1341974
0.13115113	0.55804757	0.13703351
0.62916989	0.30770934	0.12593089
0.64249437	0.80822014	0.12668129
0.63296069	0.05883819	0.61295255
0.60866673	0.56758219	0.61870025
0.13354539	0.318898	0.61237014
0.11169082	0.81767338	0.61998238
0.12457253	0.0562767	0.13551261
0.13756361	0.55661556	0.13466633
0.62460093	0.30327457	0.11166438
0.62619	0.80495384	0.12332259
0.63355662	0.06030567	0.60561084
0.62336168	0.56751746	0.63196164
0.12627503	0.31583806	0.62468793
0.10991285	0.81867971	0.61785479
0.12375366	0.05759058	0.11869602
0.13807655	0.55470753	0.11547917
0.61881502	0.30494125	0.10409383
0.59729845	0.8012908	0.12290212
0.62708583	0.0657762	0.60676745
0.61120095	0.56992422	0.63935785
0.12831786	0.31359198	0.63977174
0.10680572	0.81811237	0.61612857
0.12550388	0.05859842	0.10637308
0.13254091	0.55241964	0.10458919
0.61302637	0.30876448	0.10597696
0.5907288	0.79932425	0.12661484
0.62151834	0.07082326	0.61465315
0.59458299	0.57010858	0.62326959
0.14027915	0.31641345	0.63555084
0.1024592	0.81359071	0.61992321
0.1298825	0.0552206	0.11726318
0.12344494	0.55497866	0.10702564
0.61279243	0.30632229	0.1141147
0.60338565	0.80044087	0.12900126
0.62224564	0.06990435	0.62424603
0.60268131	0.56756021	0.61004298
0.15135792	0.32140455	0.61571318
0.09576847	0.81312483	0.62492488
0.12848368	0.05394063	0.13056867
0.1142393	0.56207829	0.11462005
0.61987412	0.30170113	0.11137175
0.61364426	0.803277	0.12225827
0.62782705	0.06600954	0.6304276
0.62514672	0.56560509	0.61327966
0.14913162	0.32012758	0.60269512
0.09300102	0.81724441	0.62422409
0.11884097	0.05767061	0.12664237
0.10937433	0.56777098	0.11415778
0.62857451	0.30680147	0.09956091
0.6064541	0.80425034	0.11774479
0.63288961	0.06957268	0.63105015
0.6350775	0.56839455	0.61904532
0.13950562	0.31221697	0.61093804
0.0997921	0.81954816	0.62038516
0.11068264	0.05927754	0.11009184
0.10789631	0.56676997	0.10502718
0.62969355	0.31352963	0.09603688
0.59254958	0.80163399	0.12162507
0.63642784	0.07700624	0.6282428
0.62803807	0.57168829	0.61544751
0.13217584	0.3098156	0.62202982
0.10887842	0.81695462	0.6156909
0.11540994	0.05690328	0.09828392
0.10502819	0.56152762	0.09982748
0.62687581	0.31113455	0.11423699
0.58998344	0.80103385	0.13028458
0.63692436	0.07417757	0.62646986
0.62632064	0.57030431	0.60768101
0.1325389	0.31921417	0.61602442
0.10432439	0.81475472	0.6148117
0.13152398	0.05534147	0.1067534
0.10090807	0.55868104	0.10653232
0.63584063	0.30450822	0.13540982
0.60846438	0.80531976	0.13291904
0.63596775	0.06575105	0.62570628
0.64482405	0.56501989	0.60649698
0.13382456	0.32680801	0.60254582
0.09809979	0.81748579	0.61872303
0.14434914	0.05514134	0.11993882
0.10082045	0.5618962	0.11751394
0.64189487	0.30311347	0.13062273
0.62269975	0.80993989	0.12871771
0.63170755	0.06513487	0.62309021
0.66260697	0.56239708	0.60875703
0.12767824	0.32189602	0.60813816
0.1082046	0.82267993	0.62055223
0.14476565	0.05728684	0.11353537
0.10667893	0.56415422	0.11710133
0.63135465	0.30496813	0.11590924
0.61162118	0.80782838	0.12513463
0.63682608	0.07147219	0.61801781
0.64445125	0.56395084	0.60735209
0.12617937	0.31753301	0.62463588
0.12159063	0.82273475	0.61908713
0.14037367	0.05819271	0.09829101
0.11599749	0.56002097	0.10459928
0.61408016	0.30568323	0.1149218
0.58918657	0.80331957	0.12030353
0.64575296	0.07434431	0.61332755
0.61975041	0.56730962	0.60371546
0.13776149	0.32183112	0.6299792
0.11303239	0.8201759	0.62382174
0.13949546	0.05951231	0.10264226
0.11932143	0.55555458	0.10215978
0.61115371	0.30563852	0.12974576
0.58448443	0.80473382	0.11583116
0.64541794	0.06831034	0.6142105
0.62285535	0.56670193	0.60326949
0.13927444	0.32795304	0.61435107
0.09708433	0.81883115	0.63030819
0.13496	0.06498278	0.12196794
0.11459547	0.55831871	0.11702464
0.62772003	0.30586164	0.1389411
0.60073819	0.81409599	0.11091385
0.63536664	0.06295051	0.62102048
0.63875906	0.56350853	0.61024719
0.12905245	0.32685005	0.59611042
0.09980517	0.81611186	0.63142501
0.11978086	0.06736557	0.13367263
0.11169172	0.56762179	0.12788795
0.63511565	0.30672296	0.12747483
0.61481598	0.82107546	0.10116154
0.6272178	0.06588006	0.62751019
0.6362557	0.56347453	0.62002318
0.12626407	0.31845919	0.59577314
0.12069923	0.81513824	0.62711778
0.10466348	0.06639544	0.12759148
0.11890812	0.56803033	0.12260727
0.6219049	0.31009515	0.10517608
0.61184843	0.81622663	0.09464666
0.62516424	0.0705273	0.62379846
0.61550331	0.56609051	0.62268624
0.13722104	0.31401682	0.6133464
0.13469521	0.81918115	0.619403
0.11117042	0.06666518	0.11548758
0.12567582	0.5641794	0.11368633
0.60674047	0.31508292	0.10199065
0.59704846	0.80511143	0.09889419
0.62905789	0.06519892	0.62006503
0.6032279	0.56691819	0.62317825
0.14213315	0.32024321	0.62050391
0.13258821	0.82123864	0.61494109
0.13511967	0.0685049	0.11621076
0.11929324	0.56267021	0.11583259
0.60505183	0.31336974	0.1170471
0.59922796	0.80248848	0.10790289
0.63563418	0.05612357	0.6293183
0.61434219	0.56467329	0.62594055
0.12871822	0.32641613	0.61185237
0.11894807	0.82059744	0.61776538
0.14371705	0.06862474	0.1317954
0.11302633	0.56259414	0.1290385
0.6123623	0.30573091	0.12773591
0.61091975	0.81037326	0.11383509
0.63100395	0.05660282	0.63709797
0.62776665	0.56218342	0.62820845
0.1084235	0.3196039	0.60721884
0.10854377	0.82376085	0.62667157
0.13368919	0.06378852	0.13787771
0.12766669	0.56516309	0.13627465
0.6165062	0.30339731	0.12366045
0.60806901	0.80979988	0.12102686
0.62336899	0.06201404	0.63065834
0.62918664	0.56190269	0.62621159
0.10842341	0.31295445	0.61266827
0.114882	0.82685092	0.63086617
0.12242961	0.06031419	0.12452092
0.139676	0.56624151	0.12560314
0.61265039	0.30631268	0.11722963
0.59916556	0.8004611	0.12553685
0.61697015	0.05885812	0.61601861
0.61981597	0.56361008	0.62495706
0.12645543	0.31625593	0.62106054
0.12900764	0.82498964	0.62533352
0.11633816	0.06400298	0.1164215
0.1375756	0.56719473	0.11435344
0.61885979	0.30742097	0.12062172
0.60267027	0.79756323	0.12209198
0.61574114	0.05286075	0.60569346
0.61305212	0.56437823	0.62813656
0.13142952	0.3232129	0.62255685
0.12493611	0.82224219	0.6184427
0.11658813	0.07151952	0.12584027
0.13312953	0.57079027	0.1255028
0.6377232	0.30353424	0.12575878
0.61896957	0.80586821	0.11708979
0.6192285	0.05337111	0.61176176
0.61766733	0.56202561	0.63054311
0.11669208	0.32296847	0.61572366
0.11134716	0.82090753	0.61376125
0.12073255	0.07467934	0.1344333
0.13337132	0.57530827	0.14032392
0.63663131	0.29791785	0.12083219
0.63198959	0.81406986	0.12413462
0.62240132	0.05948628	0.62157969
0.63060625	0.56054009	0.62678588
0.10200734	0.31934079	0.6097034
0.10920831	0.82050123	0.61289328
0.12487898	0.0700503	0.13087226
0.12791791	0.57415275	0.14058365
0.62231338	0.29640399	0.11614439
0.63208338	0.81257561	0.13669867
0.6204718	0.06256791	0.6190705
0.62628563	0.56132183	0.62328592
0.10462204	0.32108035	0.61858457
0.11792351	0.82210638	0.6123745
0.12337483	0.06505679	0.11993672
0.11841461	0.56791606	0.12999955
0.61888589	0.30119723	0.11710693
0.63092584	0.80235259	0.13792135
0.61941282	0.05976081	0.60822046
0.61515015	0.56033216	0.6261325
0.11261214	0.32773129	0.637625
0.12296284	0.82523282	0.61275071
0.12228792	0.06415322	0.12019323
0.1228249	0.56259404	0.12019335
0.62450986	0.30648885	0.12192674
0.63495878	0.79681662	0.12910507
0.62080866	0.05484149	0.60711352
0.61403464	0.55764734	0.62739962
0.10947572	0.32947866	0.64157083
0.12055782	0.82763581	0.62133428
0.12931098	0.06441636	0.13173097
0.12649373	0.56086173	0.12543196
0.62887594	0.306757	0.12522757
0.64046369	0.8011845	0.12847495
0.62535789	0.05464603	0.61882652
0.62203949	0.55415026	0.62035673
0.09559912	0.32383446	0.63025706
0.11811959	0.82588431	0.64079909
0.13399979	0.06126694	0.13225931
0.12243543	0.56145614	0.14139253
0.62632765	0.30420335	0.12913348
0.6390096	0.80740244	0.13267394
0.63235126	0.06064157	0.62226581
0.62656023	0.55020995	0.61612459
0.09273107	0.31883961	0.63528798
0.12424025	0.81935823	0.64902633
0.12022701	0.05899312	0.11614981
0.10971224	0.56076191	0.1450961
0.62338299	0.3041911	0.1337593
0.63263776	0.80623737	0.13668177
0.62934855	0.06537383	0.61413092
0.62214414	0.54893198	0.61918608
0.1089335	0.31819213	0.65115776
0.13471641	0.81254692	0.63574104
0.10142401	0.05813983	0.11415913
0.10096091	0.55946817	0.13440184
0.62393499	0.30747371	0.13195786
0.62904256	0.80012734	0.13347059
0.62574998	0.06324983	0.61044587
0.61207725	0.55146799	0.62134257
0.12134667	0.31914315	0.65117439
0.1356259	0.81159133	0.62717801
0.10443755	0.05920306	0.12186681
0.10776655	0.55927413	0.12318353
0.62538848	0.3105211	0.11937544
0.63035033	0.79699566	0.12271302
0.62847898	0.06104161	0.61545109
0.61074061	0.55600691	0.6163595
0.11643127	0.31871597	0.63792564
0.13090367	0.81345282	0.63629571
0.12054169	0.06020166	0.12404313
0.11807126	0.56021415	0.12148873
0.62713069	0.30728824	0.11133133
0.63058438	0.79999767	0.11484857
0.62591759	0.06189993	0.62468001
0.61378051	0.55933708	0.60991312
0.11652361	0.31630593	0.63319325
0.13296872	0.81380633	0.64944438
0.11965899	0.05819692	0.11799927
0.11489237	0.55769797	0.12699759
0.6253564	0.30286618	0.12169241
0.62982476	0.80465709	0.11734624
0.61746181	0.06112611	0.63131982
0.61481687	0.55923027	0.61554198
0.12794124	0.31288124	0.64417373
0.13448268	0.81286234	0.6456192
0.10768313	0.05280139	0.11214914
0.10395463	0.55327681	0.13220029
0.61496601	0.30347148	0.13520323
0.63213979	0.80447318	0.12947425
0.6119467	0.05488057	0.63008161
0.62143718	0.55894837	0.63446781
0.1364293	0.31307102	0.65751244
0.12916848	0.81500016	0.63161546
0.11075247	0.04857447	0.10983284
0.1088675	0.55007426	0.12936581
0.60257789	0.30682211	0.12683938
0.63431366	0.80314445	0.1372399
0.61248262	0.05353054	0.62522006
0.63256452	0.55935312	0.64246388
0.13530826	0.31426098	0.65599723
0.12072524	0.81392218	0.62752704
0.13106692	0.05071826	0.11370832
0.12725717	0.54895853	0.12401676
0.60183658	0.30749846	0.11297032
0.63232977	0.80773629	0.13650795
0.62152225	0.05962777	0.62261216
0.63853704	0.55980785	0.6250592
0.1283914	0.31147336	0.63742888
0.11888009	0.80811447	0.63825346
0.14579486	0.05573139	0.12631759
0.13701054	0.55039301	0.13007677
0.61136141	0.30358084	0.11942359
0.63020735	0.8104886	0.13269409
0.62193395	0.0653481	0.62274996
0.63695299	0.56180933	0.6151887
0.12615839	0.30307631	0.62655752
0.12536346	0.81015654	0.64550796
0.13933661	0.05880966	0.13572054
0.12680746	0.55205376	0.14374386
0.61700521	0.3006594	0.13737544
0.6349197	0.80796581	0.13229609
0.61546729	0.06391152	0.62294292
0.63001638	0.56504919	0.63168983
0.13561257	0.29598303	0.63430123
0.13792579	0.81162992	0.63270738
0.1231946	0.05965927	0.13052266
0.1227874	0.55410629	0.1524138
0.61175349	0.30288089	0.14526179
0.64370666	0.80783088	0.13571807
0.61606284	0.05890918	0.62083448
0.62444787	0.56361132	0.64807677
0.14299584	0.29822624	0.644437
0.14974844	0.8061751	0.61337436
0.11338782	0.06117682	0.12276812
0.13391946	0.55439708	0.15307974
0.61407853	0.30654473	0.13126126
0.64508319	0.81020434	0.13620437
0.61871546	0.05763615	0.61960224
0.62233309	0.56173968	0.64649937
0.13577819	0.30527875	0.63687686
0.15448139	0.80042169	0.60839
0.11647253	0.06339942	0.13498549
0.14216934	0.55369075	0.1477477
0.63050352	0.30933501	0.11837191
0.63838833	0.80871746	0.1292827
0.62550514	0.06476738	0.62494241
0.62251434	0.56259107	0.63276371
0.11856449	0.3084284	0.61960599
0.15235118	0.8011485	0.62308732
0.11918177	0.06209576	0.14652401
0.13933852	0.5586281	0.14141309
0.64037289	0.30938245	0.12199508
0.63144764	0.8041959	0.12124937
0.62562245	0.07206682	0.63379774
0.63048349	0.55893044	0.62756364
0.10956064	0.3065113	0.61350118
0.14220636	0.80458707	0.62446432
0.11157892	0.05830531	0.14015541
0.13210992	0.56296717	0.14063913
0.63200822	0.30939553	0.13243646
0.63259309	0.80320496	0.12373477
0.61561927	0.06543097	0.64084479
0.63877772	0.55413514	0.63850774
0.11764942	0.30552734	0.62468462
0.13168463	0.8070271	0.60656015
0.10388576	0.05604785	0.1323966
0.1317186	0.56006516	0.13816202
0.62179087	0.31134258	0.13599021
0.64238839	0.80684282	0.1256484
0.60758825	0.05309956	0.6441085
0.64000215	0.55492778	0.64971284
0.11866737	0.30978798	0.63685357
0.13386596	0.80629789	0.60176992
0.10859297	0.05534139	0.13598786
0.13788297	0.55734908	0.12907198
0.62618561	0.31224951	0.13408401
0.64963201	0.81105761	0.11596011
0.60777784	0.05365815	0.64469296
0.63570517	0.56158672	0.64564124
0.1050253	0.31316688	0.63471144
0.1454803	0.80316481	0.61728606
0.12349713	0.05668149	0.14256688
0.14185133	0.56100789	0.12503016
0.63645232	0.31290188	0.13258195
0.64540916	0.81460773	0.10675269
0.61575009	0.06285783	0.64540266
0.63251456	0.56500269	0.6314554
0.09623671	0.31288226	0.62422706
0.14416431	0.80318279	0.62947845
0.13474554	0.05876424	0.14578908
0.13443831	0.56575554	0.12969262
0.63753598	0.31444483	0.13535712
0.64173835	0.81760214	0.10758269
0.62414663	0.06930204	0.64290348
0.63045037	0.5623942	0.62002215
0.10084128	0.31529638	0.62799001
0.12875192	0.81288437	0.62311061
0.13093139	0.05948441	0.1445315
0.1258702	0.56641727	0.13447063
0.63419489	0.31548129	0.14341417
0.65201485	0.81777764	0.1135129
0.62209418	0.06596969	0.64007386
0.62744918	0.56003394	0.62521255
0.10931001	0.32056602	0.63500697
0.12201113	0.82301756	0.61197711
0.12045108	0.06013212	0.14680696
0.12907043	0.56285236	0.12708249
0.62995712	0.31510581	0.15074466
0.65732046	0.81436751	0.11822648
0.61268052	0.05857512	0.64041473
0.62485213	0.56205398	0.63818054
0.112695	0.32397097	0.62856074
0.13511128	0.82017903	0.61678595
0.12131207	0.06287335	0.15312187
0.13559851	0.56046681	0.10915044
0.62346829	0.31275311	0.14742715
0.64972291	0.81151273	0.11820901
0.6095144	0.05937858	0.64008225
0.62545492	0.56623417	0.63598905
0.10708039	0.32456964	0.61863284
0.1471506	0.81696504	0.63378023
0.1312479	0.06758918	0.15764957
0.12967503	0.56367435	0.09568384
0.61889197	0.31004742	0.13779134
0.64356273	0.81130714	0.11607207
0.62103238	0.06504172	0.63783944
0.62716416	0.56839135	0.61981805
0.1036705	0.32331215	0.62078991
0.13917147	0.82174064	0.64707378
0.13759835	0.06771299	0.15431453
0.12082704	0.56731839	0.0949698
0.61666578	0.30764846	0.13230219
0.64645944	0.81074681	0.11516108
0.63114948	0.06508336	0.63624807
0.62997149	0.56514881	0.60968098
0.11502225	0.32240191	0.63786497
0.11929133	0.82988855	0.6435412
0.13400517	0.06064219	0.14266521
0.12087966	0.56476252	0.10115364
0.61338264	0.30644102	0.13562028
0.64985024	0.80782063	0.12005561
0.62208357	0.0610199	0.633891
0.63349782	0.56290484	0.61594189
0.12912714	0.32264055	0.64339121
0.11307371	0.83060966	0.62731743
0.12481688	0.05637589	0.12789655
0.12638232	0.55844509	0.10521405
0.61351395	0.30645682	0.13195498
0.64746109	0.80507525	0.12773928
0.60860435	0.05848185	0.63112778
0.6348334	0.56863177	0.62322341
0.12400529	0.32237513	0.63427136
0.12194871	0.82506604	0.61876355
0.12028562	0.06218186	0.1207263
0.12633888	0.55852963	0.10205111
0.62307926	0.30777319	0.11538103
0.64329679	0.80637614	0.12614263
0.61635386	0.06182655	0.62353683
0.63206536	0.57438294	0.61757107
0.11870994	0.32195776	0.62301227
0.12269658	0.82025479	0.62454355
0.12452616	0.06795157	0.12595881
0.11830472	0.5645358	0.09947775
0.62422026	0.30916213	0.1012075
0.63673645	0.81146179	0.1149561
0.63102427	0.06729674	0.61343478
0.6251421	0.57025018	0.60901022
0.12721164	0.31969324	0.62288384
0.11194008	0.82326178	0.62177468
0.12550481	0.066117	0.13125009
0.11712212	0.56768593	0.11106754
0.62182264	0.30738718	0.10369678
0.6300027	0.81268768	0.11232104
0.63954151	0.06813253	0.6067508
0.61655564	0.5632639	0.61529013
0.13351335	0.31783451	0.63015518
0.10256879	0.82692375	0.60904735
0.11602644	0.06189941	0.12802698
0.12563002	0.56303078	0.12823983
0.6215902	0.30345371	0.11469054
0.62558644	0.80372729	0.11973131
0.63684072	0.06414449	0.60764405
0.61675007	0.56017491	0.62979261
0.12698493	0.32130604	0.63033237
0.10536497	0.82538458	0.60235027
0.10921779	0.06239838	0.12033943
0.13225293	0.56253018	0.12909759
0.62222039	0.30001012	0.1164053
0.62283021	0.79593129	0.12408611
0.63020601	0.06038879	0.61666756
0.61869777	0.56352959	0.62560505
0.12512292	0.32092079	0.61674079
0.11604141	0.81957484	0.60418807
0.11216206	0.06712293	0.12407488
0.12927538	0.56772051	0.1132971
0.62161669	0.299168	0.1114104
0.61682249	0.80142726	0.11524506
0.628496	0.06322362	0.62397923
0.61767098	0.57010727	0.60887465
0.1346196	0.3179429	0.60055359
0.11833346	0.81943884	0.60832816
0.12133115	0.06856634	0.13604031
0.12249402	0.57232104	0.10852789
0.62086234	0.30066115	0.10843394
0.6087155	0.80449777	0.10151162
0.63250692	0.06757452	0.61979927
0.61712005	0.56657373	0.59701002
0.1431479	0.31970446	0.6012746
0.10451846	0.82330059	0.60812128
0.12624669	0.06322133	0.14019784
0.12187275	0.57311455	0.11685557
0.62686032	0.30089688	0.10990711
0.6020029	0.79843092	0.0973718
0.63525104	0.06506207	0.61167449
0.61991869	0.560245	0.60016816
0.14183142	0.32180651	0.60824545
0.09404624	0.82793276	0.60479315
0.12133723	0.05658082	0.12777697
0.12589535	0.56931687	0.11852489
0.6352292	0.3009985	0.11148494
0.59760055	0.79275516	0.10967245
0.6283601	0.05751807	0.6169918
0.62399095	0.55924885	0.61301631
0.13523154	0.31825819	0.60598392
0.09897965	0.82732559	0.61066963
0.11628446	0.05411195	0.10965011
0.12685443	0.56558338	0.10918772
0.63532636	0.30438148	0.10583935
0.59628381	0.79489196	0.11929415
0.62014299	0.05533592	0.62264063
0.62626253	0.55996285	0.61817644
0.13045978	0.31800563	0.59856306
0.11164909	0.82103754	0.62918101
0.12545254	0.05756242	0.1035669
0.120826	0.56671308	0.10078023
0.62701099	0.30676129	0.09688128
0.5996061	0.80298389	0.11597336
0.62323114	0.06057547	0.61694219
0.62517388	0.55643149	0.60883902
0.13460101	0.3230974	0.6036826
0.11431901	0.81705367	0.63620942
0.13539454	0.06231777	0.11187205
0.11404531	0.56909543	0.1089485
0.62265899	0.30213552	0.09578419
0.60664408	0.80270197	0.11000875
0.62938618	0.06165342	0.61224261
0.61993108	0.55180729	0.59324711
0.13846017	0.32842356	0.60989129
0.09987991	0.81717581	0.62660686
0.13375941	0.05854311	0.11352707
0.11142724	0.56595079	0.12024042
0.63356476	0.29510222	0.10431611
0.6080059	0.79787746	0.11030975
0.62584713	0.05568847	0.61560147
0.61166531	0.55085375	0.58628942
0.13242148	0.32763402	0.60706197
0.08693219	0.8226875	0.61466193
0.13048372	0.05515319	0.10200374
0.11434109	0.55901137	0.12079827
0.64567485	0.29486808	0.11332945
0.60068502	0.79685164	0.11773528
0.6154295	0.05249667	0.61818962
0.61335384	0.55066765	0.59384273
0.11508008	0.32440778	0.60710836
0.10162643	0.83206142	0.60935956
0.13446715	0.06241867	0.09797114
0.11448949	0.55764738	0.12023572
0.6443786	0.2998529	0.11414696
0.59975395	0.80251707	0.12360053
0.60563642	0.05527549	0.61241619
0.62144999	0.5508661	0.61046514
0.10999538	0.3242093	0.60871552
0.12572785	0.83317018	0.61013059
0.14021865	0.07335969	0.10308852
0.11216755	0.56441446	0.12100787
0.64140358	0.30155731	0.11182539
0.6068861	0.80836348	0.1230432
0.60330969	0.05784232	0.60210662
0.61773299	0.55115001	0.6235342
0.12004062	0.32924826	0.60968439
0.12379409	0.82616495	0.61197402
0.13690897	0.07486913	0.10186519
0.11696451	0.56849339	0.12180583
0.64433618	0.30064778	0.11416518
0.60850542	0.8091146	0.11674156
0.61043737	0.05609269	0.60002344
0.61153211	0.55145794	0.62431662
0.12306863	0.33380552	0.60583433
0.11439188	0.82236403	0.61117087
0.13078155	0.06853658	0.10058515
0.12578097	0.56316773	0.12280841
0.64043013	0.30397027	0.11898108
0.60036748	0.80549643	0.11960164
0.61682138	0.05178557	0.61191287
0.60711469	0.55272639	0.62145222
0.11128982	0.33160283	0.59811883
0.11801645	0.82287141	0.61578649
0.13223501	0.06475849	0.10258763
0.12827782	0.55904169	0.12482818
0.62963491	0.30840618	0.11756729
0.59857327	0.80039567	0.13445465
0.61315442	0.05115331	0.6256314
0.6119393	0.55495307	0.62945034
0.10255139	0.32535659	0.59622313
0.13630019	0.82302874	0.61866645
0.13725606	0.06688445	0.11002343
0.12894473	0.56314697	0.1218224
0.61956003	0.30664789	0.11274547
0.60614098	0.79840634	0.14808822
0.61191562	0.05619339	0.62310774
0.6217099	0.55590268	0.63567372
0.10912821	0.32250656	0.60891748
0.14715816	0.81841906	0.61775062
0.13693092	0.07265483	0.11801216
0.13460955	0.56727592	0.11447946
0.61832447	0.30102558	0.11649996
0.61172812	0.79859428	0.1459597
0.62360162	0.06019437	0.61587421
0.62609583	0.55268434	0.63189742
0.1203013	0.32567635	0.62067423
0.13481806	0.81157456	0.61919037
0.12781454	0.07527326	0.11524674
0.14139818	0.56617856	0.11023342
0.6234197	0.29749197	0.13056248
0.60860178	0.79899971	0.13443327
0.63843395	0.05720835	0.61970667
0.61853973	0.55055074	0.62360146
0.12635283	0.32197418	0.61635065
0.1115022	0.80863349	0.62071389
0.11778516	0.07285806	0.10326199
0.13449855	0.56340316	0.11343636
0.62478892	0.29811955	0.13612488
0.60372411	0.79894852	0.12668466
0.63568268	0.05634641	0.62433059
0.61342026	0.55283531	0.61702844
0.12093209	0.30948885	0.60791318
0.09791302	0.81122285	0.6198394
0.11482628	0.0724161	0.09253899
0.11507244	0.56467956	0.12103475
0.61580651	0.30231601	0.12399
0.60047927	0.79963287	0.13023392
0.62397801	0.057564	0.61867375
0.62019483	0.55854588	0.6211806
0.11108366	0.30192437	0.60396374
0.10676037	0.81501048	0.61888071
0.11620089	0.07592143	0.09864196
0.10350066	0.56490636	0.12667061
0.60989781	0.30570723	0.12199578
0.60132864	0.80095898	0.13323457
0.6251208	0.05503897	0.61034974
0.62986892	0.5624914	0.63103665
0.11624814	0.30617515	0.60765289
0.12299467	0.81418878	0.62247276
0.11447806	0.0762155	0.11188685
0.1078391	0.56566451	0.12329755
0.61095763	0.30347255	0.14091556
0.60852921	0.80342315	0.12769229
0.63809708	0.05544562	0.60589813
0.63136563	0.5629406	0.63077563
0.13320926	0.31696644	0.61930233
0.13034281	0.81000477	0.62696412
0.11058864	0.06871434	0.11551825
0.11337142	0.56532384	0.11879355
0.6123528	0.30243398	0.13994041
0.61622589	0.80638626	0.12351813
0.64927017	0.06273762	0.60653889
0.62583508	0.5643004	0.62117743
0.13595018	0.32102401	0.63184371
0.11029048	0.80755101	0.63392709
0.10983189	0.06083089	0.11004363
0.10253256	0.56253108	0.12987007
0.61289854	0.30738295	0.12147219
0.61461217	0.80665863	0.12959895
0.64910164	0.06639983	0.61133476
0.62573331	0.56969381	0.62540851
0.12353663	0.31613225	0.62744787
0.10853731	0.81383279	0.64460834
0.11496715	0.05919479	0.11292543
0.08266979	0.55935354	0.14097411
0.61382519	0.30919087	0.11504206
0.60939305	0.80652242	0.13795898
0.64199667	0.06276923	0.61469884
0.63086131	0.57392209	0.63485042
0.11601888	0.31026903	0.62058448
0.1282347	0.82341824	0.65176424
0.12732923	0.05932964	0.12346585
0.09011166	0.55766034	0.13599535
0.6153092	0.30609882	0.12326432
0.61595198	0.81070659	0.13974502
0.63772859	0.0642771	0.61353967
0.63257574	0.57347921	0.62988995
0.1239778	0.31084038	0.62453718
0.13007006	0.82461595	0.6485665
0.12818198	0.05572325	0.13274737
0.10958535	0.55988002	0.13156283
0.61513168	0.30505787	0.12639462
0.63149246	0.81620415	0.13386487
0.64116693	0.06987297	0.61217098
0.62601802	0.57069433	0.6256739
0.13685425	0.31478534	0.63683565
0.11200409	0.81664867	0.64071339
0.11459789	0.05371369	0.131188
0.10928179	0.56455536	0.13999534
0.61122009	0.31152737	0.11643729
0.64407134	0.81676754	0.12728469
0.6409785	0.07159185	0.61397697
0.61490108	0.56964073	0.63015076
0.13974207	0.316051	0.63644846
0.10287918	0.81345894	0.62851073
0.10621235	0.05536394	0.12126522
0.10273667	0.56715478	0.15270633
0.60607853	0.31793191	0.10216168
0.64028696	0.81406581	0.12521545
0.63343467	0.07132413	0.61561199
0.61254642	0.56971637	0.64037024
0.13527202	0.31272275	0.63018488
0.11037667	0.81749749	0.6270796
0.10820445	0.05662949	0.11368171
0.10796064	0.56355985	0.15460066
0.60360549	0.31766848	0.09534969
0.6296159	0.81320388	0.12843667
0.62691527	0.07210733	0.6146398
0.62461631	0.56939421	0.64747065
0.13970401	0.30850886	0.63322235
0.12497334	0.81779096	0.6304717
0.11125205	0.05502333	0.11587467
0.12668273	0.55928771	0.14716209
0.60678793	0.31526382	0.10520108
0.62535921	0.81683207	0.13113416
0.63087022	0.07319817	0.6134128
0.63100526	0.56816527	0.64485942
0.15206516	0.30971297	0.64366284
0.12395372	0.81320352	0.62983476
0.11405421	0.05263858	0.12960698
0.14283707	0.55961839	0.13831384
0.61176612	0.31644303	0.12519893
0.63052048	0.8209162	0.12520766
0.63535435	0.07052928	0.61379239
0.6236813	0.56711556	0.63464302
0.15933353	0.31617517	0.64308014
0.10826925	0.8085984	0.62058499
0.11787486	0.05013744	0.13726155
0.1389571	0.56174425	0.13820897
0.61345526	0.31900725	0.12855551
0.6383413	0.81943743	0.11943494
0.62678295	0.06474674	0.61689883
0.62212575	0.56493441	0.63132549
0.15141001	0.31973351	0.6376424
0.10151836	0.81051023	0.61812545
0.11803937	0.04825914	0.13616035
0.12661677	0.5620256	0.14368889
0.61584838	0.31797256	0.11251823
0.64138883	0.81351791	0.12323323
0.61227371	0.06010506	0.62512347
0.63301076	0.56326225	0.63693669
0.13370751	0.31471689	0.63460066
0.12311334	0.81573808	0.62117751
0.12132461	0.05002522	0.13739636
0.12809537	0.56050018	0.14003018
0.6294648	0.31384944	0.10909767
0.63844806	0.811965	0.13058533
0.60784857	0.05895091	0.63389373
0.63888064	0.56294801	0.63562277
0.12128064	0.31036996	0.63087088
0.14904628	0.81730193	0.62107517
0.1280436	0.05584886	0.1476192
0.14124955	0.55909824	0.12509981
0.63837975	0.31097394	0.12870827
0.63901675	0.81416683	0.13286492
0.61346517	0.0596678	0.63358146
0.6288702	0.56112326	0.62644893
0.12063523	0.31339373	0.62659526
0.14481252	0.8152286	0.6224882
0.12750419	0.0643403	0.15417195
0.14360124	0.56007744	0.119489
0.63084926	0.3128742	0.14351206
0.64430986	0.81300838	0.12409673
0.61435527	0.05846687	0.62752117
0.62114153	0.55818886	0.62166507
0.1197832	0.31742819	0.62490426
0.13118489	0.81346625	0.62731301
0.11441386	0.07106399	0.14611037
0.12722766	0.5630702	0.12161526
0.62086165	0.31685022	0.13555749
0.63826503	0.80583753	0.11204628
0.60763186	0.05387263	0.62445579
0.62319163	0.55666879	0.63131493
0.11120124	0.31411387	0.62912363
0.13936314	0.81524752	0.62505637
0.10466136	0.07058187	0.13086517
0.12228984	0.55941883	0.12639784
0.62081835	0.31512663	0.12310672
0.63613095	0.7988828	0.10944071
0.60286662	0.05227069	0.62769264
0.62710208	0.55716728	0.64328363
0.10150847	0.30964111	0.62938693
0.15926623	0.81835849	0.61858648
0.10913269	0.06624955	0.12313379
0.136218	0.55510246	0.12511904
0.6267581	0.30833364	0.13462396
0.64383004	0.79875233	0.11594732
0.6086862	0.05621606	0.6321492
0.62684291	0.55682376	0.63890636
0.0991102	0.31127593	0.62704321
0.16280248	0.82010269	0.62428894
0.12651688	0.06714834	0.12394485
0.14960705	0.55947654	0.11565166
0.63160668	0.30018422	0.16743609
0.64704889	0.80451564	0.1194883
0.61816124	0.05945964	0.63235215
0.62070174	0.55431009	0.62165139
0.10320431	0.31891013	0.62766424
0.14679851	0.81640723	0.63374022
0.14096663	0.06885439	0.12186047
0.14682097	0.56674279	0.10898117
0.6270655	0.2979698	0.1841154
0.64079575	0.80837804	0.1112608
0.62274313	0.05599739	0.63109229
0.61578169	0.551397	0.60716772
0.10366745	0.32537192	0.62883957
0.131964	0.81007019	0.63454764
0.13534304	0.0667965	0.11377721
0.13265845	0.56770364	0.11390694
0.6146493	0.30158972	0.17351688
0.62917213	0.80472296	0.10477046
0.61998729	0.05267371	0.6351369
0.62011572	0.5514555	0.61003814
0.09655681	0.32427674	0.62905856
0.13774755	0.8092427	0.62867859
0.12216089	0.0640692	0.10546094
0.12377684	0.56476635	0.12675931
0.60676541	0.30277009	0.14982938
0.62892561	0.79869799	0.1078827
0.61537866	0.05832937	0.6422175
0.62773744	0.55365825	0.61900176
0.0950939	0.3186283	0.62634321
0.14815046	0.81462877	0.62513434
0.12149462	0.06310389	0.11363327
0.13480541	0.56421782	0.13179905
0.61242345	0.30219318	0.14915958
0.64427109	0.80019611	0.1187213
0.61370498	0.0672416	0.64671298
0.62665962	0.55383783	0.62092893
0.1109078	0.31542491	0.62279603
0.14310049	0.81691268	0.62103726
0.13230267	0.06363478	0.1272928
0.13383779	0.56505444	0.12400341
0.6219995	0.30250202	0.16533092
0.65478989	0.80735859	0.11965641
0.61492306	0.064452	0.64726461
0.62067763	0.55625848	0.61435905
0.11986903	0.31759992	0.62508162
0.1314827	0.81028493	0.61713356
0.13832235	0.06358752	0.12470578
0.12182411	0.56477707	0.11904457
0.62147806	0.30598764	0.16799407
0.64762233	0.80745557	0.11202764
0.6191162	0.05703456	0.64616812
0.62151932	0.56335927	0.61690974
0.11805147	0.31905358	0.63544107
0.1272043	0.80940817	0.61654337
0.13248337	0.06161459	0.116356
0.12334534	0.56300304	0.12269017
0.61332422	0.30700274	0.13803941
0.63743055	0.79969341	0.10425585
0.62783354	0.058644	0.64701916
0.62985134	0.56557949	0.63267201
0.11659999	0.31486754	0.64202994
0.13130519	0.8153866	0.61753053
0.11811845	0.05874182	0.11571659
0.13128246	0.56134962	0.12255359
0.61484693	0.30395097	0.11892524
0.6356989	0.79854844	0.11023302
0.62356093	0.0664972	0.65169298
0.63298553	0.5660565	0.63503483
0.12494139	0.31006795	0.63801653
0.13653082	0.81460271	0.61536349
0.10673713	0.05639219	0.12320301
0.12735001	0.56045089	0.11286953
0.62677736	0.29985524	0.12977933
0.64042928	0.80589217	0.11829405
0.61142303	0.06751205	0.65615194
0.62626788	0.5696751	0.62295519
0.13369336	0.31239974	0.63531854
0.13643204	0.80971231	0.61326107
0.11357698	0.05478153	0.12929642
0.11605896	0.56005489	0.11125402
0.62426712	0.29616676	0.14274427
0.64470335	0.80917926	0.11783954
0.61288143	0.06270467	0.65106514
0.62345866	0.57152378	0.62346194
0.12901148	0.31724213	0.64257765
0.1274751	0.81021854	0.61706597
0.1246456	0.05272083	0.13299757
0.11047336	0.56082798	0.11414055
0.61477623	0.29550353	0.13592574
0.64205208	0.80893538	0.11777409
0.63158712	0.0588361	0.63840325
0.63063803	0.56874087	0.63613785
0.1199779	0.31610746	0.6483524
0.12266519	0.81490395	0.62012279
0.12099056	0.05219879	0.13957964
0.11601391	0.55821943	0.11414517
0.62136682	0.29806478	0.11448212
0.64022518	0.8073214	0.12479877
0.64065455	0.05988291	0.63344726
0.63597575	0.56689862	0.64194654
0.12837027	0.30879052	0.64577664
0.13269005	0.82009902	0.61475651
0.10903029	0.05562296	0.14666282
0.12366635	0.55239336	0.11306705
0.63554963	0.30158964	0.10002006
0.63777033	0.80597675	0.13008428
0.6247562	0.06408798	0.63286587
0.63376464	0.56703208	0.63243398
0.14052866	0.30512911	0.6343133
0.13862365	0.82185569	0.60789196
0.110571	0.06134045	0.14895124
0.123005	0.55014037	0.11110467
0.64752957	0.30202853	0.1086218
0.633429	0.80459105	0.12666932
0.61160891	0.06721582	0.62188725
0.62655358	0.56587841	0.61977609
0.14282306	0.30844863	0.62509218
0.13241531	0.82040579	0.60674092
0.1170367	0.06080437	0.14853604
0.11794058	0.55544485	0.10953948
0.64599878	0.30014141	0.11767153
0.63339673	0.80160398	0.12769555
0.62391363	0.06295641	0.61158493
0.61598851	0.56394027	0.61955303
0.13203338	0.31293764	0.62618948
0.13172657	0.81864308	0.6161755
0.11349136	0.05897441	0.1475922
0.1190144	0.55797976	0.11141219
0.63206282	0.30446671	0.11003493
0.63446817	0.79727195	0.13077441
0.63759197	0.0544066	0.61199816
0.6160748	0.56194464	0.62452322
0.11832601	0.31355691	0.62999372
0.13802523	0.81693517	0.62509861
0.1058388	0.06150485	0.15018344
0.12681915	0.55575896	0.12196392
0.62937216	0.3050403	0.09505324
0.63028377	0.79509084	0.12933812
0.63218221	0.05673056	0.61920912
0.62416189	0.56080536	0.6256519
0.11534792	0.31006571	0.6253502
0.14336892	0.8167723	0.62326712
0.10576881	0.06511911	0.15326161
0.12755786	0.55397467	0.1343256
0.64415584	0.30283592	0.09250114
0.62153974	0.79665653	0.12633681
0.61780868	0.06234341	0.6243174
0.62698068	0.55958807	0.62336079
0.1251535	0.30907316	0.61389298
0.14054889	0.81769168	0.62074365
0.11231734	0.06169963	0.14835401
0.12824351	0.5505084	0.1439673
0.64787949	0.30596422	0.10235885
0.62076487	0.80196279	0.12504434
0.60539061	0.0604942	0.62526027
0.6238633	0.55784711	0.6200235
0.1338011	0.31517052	0.61069975
0.13248091	0.81682628	0.62576446
0.1212061	0.05361223	0.13936293
0.13504075	0.54892911	0.14820681
0.63525894	0.30773426	0.11326289
0.62291958	0.80538108	0.12575401
0.59965383	0.05586705	0.62018752
0.62155738	0.55499208	0.61695487
0.12479113	0.32190423	0.61321119
0.12570774	0.81351294	0.63499823
0.13025423	0.05304002	0.13565207
0.13821853	0.55556654	0.14669656
0.6250247	0.30338316	0.11026818
0.616548	0.80420206	0.12654071
0.60063795	0.05771719	0.61397887
0.62413099	0.55308493	0.61093247
0.11100668	0.32167741	0.6132118
0.12621294	0.8110024	0.6367215
0.13856126	0.06066183	0.12840787
0.13458919	0.56435412	0.1466024
0.62123099	0.29898028	0.10324158
0.60883642	0.80184842	0.12188128
0.61023295	0.0651178	0.61403821
0.62669829	0.5545873	0.60233278
0.11476607	0.31904465	0.60601276
0.13069568	0.81157804	0.6278395
0.14131345	0.0633492	0.11676746
0.13984598	0.56705972	0.1383204
0.62217676	0.300164	0.10952391
0.60215117	0.80416181	0.11830195
0.6121924	0.06701282	0.61605818
0.62337744	0.5563155	0.59606803
0.12381032	0.3204393	0.6031807
0.12968575	0.81338769	0.62155244
0.13783727	0.05984881	0.11125985
0.15325065	0.56547392	0.12755648
0.62310295	0.30563872	0.12113809
0.60044488	0.80850665	0.12237598
0.60085524	0.05901719	0.6171926
0.61829525	0.55530544	0.59607629
0.12103147	0.32368204	0.61630277
0.12139834	0.81528982	0.63592789
0.13584826	0.05665654	0.11553621
0.15302434	0.56172851	0.12675211
0.62211618	0.30930058	0.11505476
0.61022282	0.80375177	0.13095563
0.59764612	0.05049988	0.61560268
0.62044072	0.5551044	0.60135585
0.11230818	0.32242332	0.63564596
0.11332768	0.81643926	0.65141979
0.13864832	0.0595491	0.11823066
0.13517994	0.5611339	0.13180486
0.62172856	0.30984574	0.10641546
0.62593949	0.79922446	0.13270997
0.61107617	0.04899606	0.6123102
0.62414716	0.55803445	0.61019209
0.10971566	0.31866732	0.638014
0.11161972	0.81646354	0.64144965
0.14203656	0.06696589	0.11461651
0.12013738	0.56286447	0.13438229
0.62364464	0.30821	0.10706573
0.62707208	0.80220671	0.12147094
0.62646424	0.05445737	0.6147568
0.62584195	0.55938649	0.6154659
0.11690525	0.31670162	0.62437569
0.11665864	0.81896385	0.62537425
0.13703195	0.06555339	0.10852771
0.12163249	0.56135856	0.12843022
0.62441139	0.30673358	0.11246001
0.62053573	0.81098579	0.11152446
0.62356977	0.06214649	0.6240202
0.62295329	0.55888308	0.61040078
0.12549284	0.3193765	0.61642937
0.11663302	0.82227145	0.62303245
0.12445995	0.05770454	0.10527035
0.128773	0.55630792	0.11605746
0.62347122	0.30863568	0.11580143
0.61991529	0.81585043	0.11514048
0.61895104	0.06401431	0.62554727
0.62077779	0.55949993	0.60050102
0.12747178	0.32525392	0.62334638
0.1055259	0.82038915	0.6312817
0.11689481	0.05832512	0.10227385
0.12972472	0.561054	0.1039401
0.62531715	0.31145574	0.11707765
0.62994949	0.81298797	0.12030966
0.62803206	0.06000893	0.61440565
0.62322573	0.56219104	0.60555532
0.12115311	0.32815155	0.6333267
0.09632555	0.81705065	0.63113228
0.11868115	0.06571979	0.10561766
0.12121596	0.5690307	0.10574063
0.6311566	0.30934559	0.11761181
0.63945608	0.80603428	0.11430621
0.63779933	0.05786599	0.60245524
0.6238916	0.56541074	0.61995263
0.1142483	0.32496484	0.63620886
0.10776141	0.81910024	0.61252744
0.12197645	0.07300431	0.1201853
0.11041021	0.5663187	0.10966091
0.63729583	0.30400022	0.11760952
0.63703356	0.80677756	0.10870168
0.63812045	0.06456637	0.60023809
0.62072407	0.5667944	0.62749512
0.11254446	0.32067045	0.62796315
0.12269994	0.82153712	0.60583357
0.11838072	0.07556593	0.12874786
0.10505272	0.56066795	0.1052627
0.63896444	0.30481271	0.118466
0.62156073	0.8137553	0.11964652
0.63307413	0.07086271	0.60995504
0.62224251	0.5658874	0.62700266
0.11517075	0.3227231	0.61642235
0.11972117	0.81881543	0.61374005
0.11479818	0.07420534	0.12525537
0.10774521	0.56448565	0.10174063
0.63778246	0.310693	0.12036609
0.61464135	0.81348666	0.13150244
0.62835529	0.06969237	0.61207753
0.62970442	0.56472444	0.625294
0.12045575	0.32347231	0.61461965
0.10510826	0.81705536	0.6161555
0.1174813	0.06933434	0.11593695
0.11222108	0.57265402	0.10732332
0.63580336	0.31210869	0.12132224
0.62177062	0.80301217	0.12812425
0.63141115	0.06737004	0.60475889
0.63690481	0.56646314	0.62887863
0.12701867	0.31855204	0.6145783
0.10716323	0.82009141	0.60663422
0.12295172	0.0635417	0.11334981
0.11182679	0.57511048	0.11377873
0.63239742	0.30889372	0.12079239
0.62331239	0.80021265	0.11833163
0.63627696	0.06988368	0.60958011
0.63074579	0.56826947	0.63686848
0.13328103	0.31437382	0.6112464
0.12303511	0.82510185	0.5972741
0.12343382	0.06163829	0.11639828
0.1085663	0.5713406	0.11149711
0.62535336	0.30751883	0.12581127
0.61430804	0.80771505	0.12481619
0.63634076	0.07337331	0.62993972
0.62125898	0.56763256	0.63932477
0.14186872	0.31548256	0.60355134
0.13143319	0.82358577	0.59774138
0.1182476	0.06476248	0.12140789
0.10704794	0.56774463	0.10796214
0.61758667	0.30826664	0.13372592
0.60584558	0.81747116	0.13356551
0.62720109	0.07288013	0.6370038
0.62617048	0.56702913	0.63445846
0.14446428	0.32229639	0.60554905
0.12218557	0.81850644	0.60441306
0.115271	0.0655788	0.12307356
0.11024726	0.56738503	0.11047368
0.61557509	0.31004044	0.13205108
0.60565147	0.81817469	0.13101439
0.62575268	0.06784861	0.62746719
0.6244168	0.57061982	0.6346542
0.1467338	0.32817826	0.61353634
0.11463479	0.81583439	0.61108645
0.12029389	0.06184483	0.12400632
0.11669562	0.57085769	0.11368522
0.62109017	0.31309353	0.12863313
0.61089155	0.81101547	0.11947085
0.63752352	0.06337459	0.61306607
0.61406601	0.5767608	0.64056114
0.15678152	0.32507587	0.61462628
0.11691512	0.81737078	0.61170494
0.1271819	0.06001669	0.12658268
0.11892102	0.57369663	0.11682971
0.61772259	0.31668728	0.13022685
0.60966871	0.80615525	0.10919272
0.64820864	0.06331277	0.61274935
0.61431393	0.57803514	0.64448314
0.16136821	0.31628959	0.61211205
0.12004541	0.81955135	0.6078498
0.12918458	0.06655128	0.12733995
0.11284081	0.56910985	0.12188058
0.61434512	0.31784077	0.13474163
0.59589848	0.80794003	0.10805971
0.64017912	0.06725862	0.62707443
0.6157787	0.57080889	0.64120527
0.15826253	0.31454319	0.61249857
0.11090862	0.82208577	0.6127028
0.1279577	0.06934171	0.12255705
0.10496242	0.56151071	0.12749477
0.62283243	0.31371566	0.13321276
0.58571042	0.80863253	0.11198599
0.62499447	0.07131186	0.63858451
0.6112532	0.56453104	0.63195557
0.14535913	0.32012376	0.61540534
0.09073088	0.82404292	0.62448271
0.12633735	0.06177886	0.11938889
0.10949599	0.55983942	0.13094636
0.62928848	0.3102059	0.1252877
0.59218324	0.80558884	0.11350949
0.62517988	0.06994185	0.6326217
0.60975656	0.56742756	0.62330352
0.13205801	0.32398268	0.61741282
0.08086285	0.82373541	0.62525655
0.11936972	0.05506567	0.12491731
0.11686196	0.56433934	0.13212842
0.6189646	0.30985999	0.11994991
0.60758892	0.80668421	0.10906595
0.63864494	0.06536752	0.62259049
0.61761753	0.57354644	0.62103538
0.13045565	0.32207015	0.61748642
0.09913882	0.82441118	0.61746353
0.11590139	0.05591063	0.1283673
0.11549803	0.5657995	0.13101587
0.60427482	0.30944315	0.12532955
0.61388232	0.81164151	0.10964635
0.64810043	0.06317016	0.62383871
0.62841116	0.57377541	0.62371077
0.13482622	0.31856309	0.61857187
0.11467482	0.82628883	0.62013371
0.12303123	0.06269874	0.12467858
0.11017333	0.56005341	0.12771539
0.60643908	0.30674438	0.13094376
0.60982139	0.81499345	0.12117871
0.63890299	0.06281451	0.63342303
0.62940786	0.56619116	0.62608886
0.13407185	0.32061964	0.62364879
0.10540809	0.82830599	0.63018392
0.12649342	0.06914642	0.11726732
0.11495444	0.5556858	0.11991997
0.61839281	0.30412454	0.12805695
0.60419797	0.81373676	0.12652227
0.62955246	0.06401439	0.63498332
0.62358055	0.55947894	0.62335612
0.12858624	0.32705952	0.62958111
0.09156046	0.82492144	0.62917493
0.12347387	0.07021491	0.11126593
0.1232657	0.56231921	0.11034864
0.6195068	0.30689625	0.12029216
0.60669906	0.81230431	0.11812373
0.62940938	0.06515946	0.62193933
0.62272785	0.56082101	0.6179358
0.12614096	0.3266108	0.63130306
0.08774531	0.8163434	0.61996089
0.1226906	0.06690095	0.11245108
0.12522333	0.57084721	0.11162445
0.61358884	0.31316582	0.11483847
0.6141456	0.8120825	0.11782582
0.63924865	0.06088963	0.60872867
0.62873666	0.56445046	0.61672663
0.1244271	0.32161511	0.62696812
0.09697289	0.81347412	0.62033712
0.12369505	0.0680048	0.11652621
0.11920582	0.56613583	0.11555399
0.61759879	0.31162868	0.11607165
0.61694073	0.81216721	0.12947433
0.64955008	0.05711792	0.61229862
0.62731433	0.562333	0.62150947
0.12006085	0.32027148	0.62174192
0.11040243	0.82070264	0.63557931
0.12189346	0.07207205	0.11816314
0.11177897	0.5562786	0.11740164
0.63371707	0.30729039	0.11982199
0.61602211	0.81193199	0.1408819
0.64733557	0.06060127	0.62861085
0.61487616	0.55645583	0.62916177
0.11625096	0.32333917	0.62540305
0.12242883	0.82174973	0.64968203
0.12182816	0.06968767	0.12111055
0.11088413	0.5578851	0.11744636
0.6378622	0.31016349	0.11903568
0.61953159	0.8120914	0.14092593
0.62941742	0.06526317	0.63600375
0.61022572	0.55617615	0.63281237
0.11369181	0.32602725	0.63153238
0.12720242	0.81537319	0.64770586
0.11958039	0.06462772	0.12922781
0.11707381	0.56690413	0.11849525
0.62328032	0.3164502	0.11553832
0.62804662	0.81454743	0.1345692
0.60890696	0.06405508	0.62943404
0.62535652	0.55985081	0.62689443
0.11378492	0.32362294	0.62982243
0.12791704	0.81631974	0.63447412
0.11672874	0.06360696	0.13693518
0.12746724	0.57143078	0.12469766
0.6157937	0.319285	0.11851104
0.63421735	0.81803732	0.13319203
0.61350627	0.06071437	0.61492154
0.63253854	0.56193413	0.61924124
0.11462234	0.31747801	0.62863443
0.13279705	0.82160204	0.62457756
0.12019563	0.06563122	0.13572285
0.13053805	0.56641359	0.13145712
0.6252737	0.31757957	0.12687258
0.63124535	0.81816429	0.13756605
0.61965833	0.05952938	0.60643963
0.62743603	0.56018796	0.62402799
0.1113713	0.31696644	0.63296818
0.1446273	0.82239617	0.63367146
0.12451473	0.0670404	0.12918074
0.11955628	0.56212023	0.1276243
0.63363063	0.31477656	0.13390213
0.62537361	0.81410094	0.13773708
0.6046388	0.06151256	0.61098354
0.62144977	0.55752936	0.63604215
0.10781332	0.31823745	0.63738114
0.15314185	0.81773641	0.64820968
0.12492783	0.06540479	0.12463144
0.11471319	0.56524326	0.1230035
0.63011543	0.31506237	0.13867836
0.62982325	0.81003194	0.13314085
0.58915422	0.06403147	0.62021612
0.62091713	0.55760925	0.63667471
0.11001724	0.31262376	0.63552316
0.14829341	0.81072954	0.64666176
0.12521795	0.06168145	0.12328613
0.1292081	0.57394107	0.12556257
0.62078118	0.31772375	0.13905903
0.63825451	0.81007545	0.12909932
0.60121656	0.06476813	0.61914068
0.62395319	0.5599817	0.62996662
0.11265445	0.30905322	0.62802156
0.13454899	0.80817158	0.63400197
0.1288408	0.06139353	0.12389167
0.14644201	0.57506407	0.13070715
0.61833122	0.31663305	0.13606353
0.63937057	0.81094201	0.12887176
0.61682905	0.06233541	0.61680849
0.62323042	0.56241574	0.63262913
0.108114	0.30730138	0.62352029
0.12994917	0.81102325	0.62972834
0.13403414	0.06426897	0.1198961
0.14802259	0.56763476	0.13394532
0.62619445	0.31114563	0.13333739
0.6372334	0.80950103	0.12935545
0.61791413	0.06414179	0.62530568
0.61877106	0.56252026	0.63489876
0.10319137	0.3058335	0.62995207
0.1377407	0.81104553	0.63472998
0.13234073	0.06392295	0.10968392
0.13185983	0.56090469	0.1395178
0.62925037	0.30565363	0.1373182
0.63881616	0.80859956	0.12630618
0.6075124	0.06889895	0.63668939
0.6197533	0.56183992	0.62847347
0.10437938	0.3058007	0.6351786
0.14515154	0.80827536	0.63797061
0.12275495	0.06052896	0.11182793
0.12341278	0.56307055	0.14399602
0.61850155	0.3052508	0.14456941
0.6461247	0.81096981	0.12128154
0.60111312	0.0689305	0.63644309
0.63256676	0.56349	0.62199119
0.10706005	0.31048839	0.63177581
0.14290751	0.80721238	0.63497584
0.11937265	0.05810604	0.12507901
0.13167215	0.56779671	0.1426784
0.60429445	0.3075507	0.13993888
0.65463816	0.811905	0.11987956
0.60448967	0.06059241	0.62552474
0.64373346	0.56629709	0.61926189
0.10598624	0.31474556	0.63024824
0.13925821	0.80978586	0.63349151
0.12585212	0.06063486	0.13135365
0.1333445	0.564786	0.14242474
0.60830917	0.30599444	0.12365218
0.65497133	0.80825723	0.12225043
0.61101867	0.0529097	0.61669051
0.6310283	0.56588656	0.62142388
0.10305559	0.31119257	0.632805
0.14188364	0.81583773	0.63364926
0.13141287	0.06504004	0.12063044
0.11780259	0.55461154	0.14902562
0.62333108	0.29991086	0.11417018
0.64433975	0.80265836	0.1222942
0.61527829	0.05756104	0.6181802
0.61544152	0.56470965	0.62742859
0.10365775	0.30502811	0.6350891
0.14711445	0.81906387	0.63285139
0.12617242	0.06556006	0.11599674
0.10852344	0.54733636	0.15418891
0.62905722	0.29931	0.12329132
0.6316182	0.79955676	0.11903783
0.62010363	0.06559959	0.62035491
0.6245082	0.56478222	0.63253599
0.11117225	0.30580239	0.6364448
0.14684469	0.81506416	0.6321289
0.11552832	0.06100375	0.12485942
0.11794172	0.54694313	0.15112627
0.62097556	0.30235593	0.12895757
0.63125504	0.80060573	0.11714082
0.62684077	0.06390514	0.61340753
0.63572906	0.56241862	0.63910673
0.11544379	0.31007473	0.63637444
0.14119146	0.80916339	0.63217751
0.11850443	0.05739215	0.13450689
0.1357816	0.55235261	0.1421178
0.61848717	0.30502396	0.1197397
0.63678417	0.8028715	0.11898898
0.63176426	0.05881491	0.60813555
0.63083982	0.55885563	0.6464211
0.11468856	0.31390971	0.63300538
0.13412849	0.81063284	0.62945099
0.13110782	0.05638005	0.13461329
0.13939741	0.55400204	0.13738211
0.62411446	0.30502157	0.10849585
0.63141698	0.80218223	0.12057538
0.62773994	0.0597124	0.61217915
0.61514988	0.558114	0.65026106
0.11562197	0.31761919	0.62843145
0.13301937	0.81531061	0.62138743
0.13023733	0.05606052	0.13122568
0.12451036	0.54713724	0.13903181
0.62410684	0.30220409	0.11196268
0.62404074	0.7983108	0.12284519
0.62206254	0.06749357	0.62432763
0.60848087	0.56065072	0.65029053
0.12192444	0.31937865	0.62513341
0.14249743	0.81599922	0.6177589
0.11352455	0.05394686	0.1340508
0.11600702	0.54421539	0.13597051
0.61282526	0.29822347	0.12779031
0.63044636	0.79677509	0.12585122
0.62151751	0.07102702	0.63452199
0.61733488	0.56122339	0.64733168
0.12969034	0.32048295	0.62971568
0.14653485	0.81308131	0.62088468
0.103053	0.05133272	0.14032933
0.12084677	0.54995312	0.12628566
0.60789193	0.29725314	0.13887338
0.64158049	0.80036935	0.12769506
0.6179365	0.0656275	0.63409554
0.62666172	0.55894457	0.63849008
0.13286853	0.3194603	0.63997625
0.13637921	0.81188769	0.6175711
0.11202389	0.0515764	0.14315527
0.12931706	0.55761701	0.12234069
0.61414296	0.29780207	0.12998798
0.6410888	0.80051464	0.13167628
0.61313347	0.06198866	0.6228077
0.62060374	0.55848657	0.63031328
0.13020318	0.31821358	0.64689061
0.12549079	0.81386739	0.61044157
0.13306036	0.05065815	0.14098732
0.12559575	0.55966437	0.12833491
0.62085923	0.29677866	0.11160586
0.62802927	0.79485036	0.13754268
0.6171872	0.06514385	0.61424842
0.61020616	0.56364747	0.62624339
0.13051415	0.31930342	0.64406929
0.1233945	0.81515857	0.60884689
0.13599759	0.05101198	0.13515662
0.11517574	0.5564249	0.13194883
0.61852767	0.29760076	0.11086202
0.61527465	0.79448798	0.14013519
0.62954072	0.06978735	0.62547636
0.60977688	0.56650984	0.62840978
0.13094756	0.31683904	0.63877502
0.12171785	0.8140769	0.61658076
0.11509455	0.05310428	0.13102264
0.11516416	0.55367122	0.12597067
0.61112911	0.30112924	0.12377882
0.61240834	0.80062461	0.13836175
0.63875346	0.06931931	0.64078131
0.62335947	0.56429608	0.62970865
0.12403203	0.31340345	0.63883646
0.11206206	0.81290593	0.62517068
0.09994857	0.05481965	0.13149051
0.13296636	0.55639571	0.11725974
0.60665299	0.30364709	0.12961572
0.62188257	0.80344874	0.13737105
0.63757123	0.06401903	0.644222
0.64009367	0.56287677	0.62066292
0.11327784	0.3170781	0.63878855
0.10105087	0.81470878	0.62498406
0.10753886	0.05661544	0.13280402
0.14441318	0.55877521	0.11584855
0.61015329	0.30200269	0.12426336
0.63105126	0.80513524	0.13680189
0.6282557	0.05943125	0.63326326
0.64037558	0.56418156	0.60817608
0.11051377	0.32079662	0.63508467
0.10104994	0.81822193	0.62052864
0.12268353	0.05867734	0.13165349
0.1342082	0.55817529	0.11837797
0.61828846	0.30174826	0.12450389
0.62921309	0.810487	0.13242274
0.61522012	0.05675762	0.62170727
0.62989225	0.56323459	0.60780631
0.11783081	0.3161554	0.62387545
0.11395943	0.81896765	0.62211652
0.12627416	0.06245015	0.12775953
0.11417169	0.55868931	0.11699715
0.6205221	0.30752558	0.13353601
0.62384084	0.81543141	0.1214309
0.6049488	0.05448366	0.63149214
0.62303932	0.55851202	0.6199654
0.12695325	0.30882409	0.61394127
0.12380902	0.81684211	0.62863195
0.11914397	0.06403687	0.12386773
0.11556203	0.56217146	0.11126786
0.61068262	0.31178895	0.13771393
0.6271915	0.81488339	0.11131115
0.60188257	0.05272548	0.63960284
0.62243442	0.55361326	0.62077472
0.13149687	0.30672519	0.6139287
0.11951625	0.81897671	0.62943705
0.11941076	0.06264184	0.12943555
0.13330174	0.56526679	0.10806893
0.60523596	0.31222253	0.12928021
0.637782	0.81130258	0.11270206
0.60930552	0.05210726	0.63272805
0.62358533	0.55208932	0.60755614
0.13363326	0.30927162	0.61836055
0.11694349	0.82390242	0.62465198
0.13712515	0.06267525	0.13971618
0.14002838	0.5658242	0.11518497
0.61284158	0.3141704	0.11765586
0.64224253	0.80996315	0.12072723
0.6191874	0.05138422	0.62810856
0.62189086	0.55446127	0.60119054
0.13147753	0.31267442	0.61766062
0.12310954	0.82428696	0.61833365
0.146192	0.06521078	0.13977812
0.12864965	0.56593668	0.12303838
0.62372644	0.31807884	0.11588545
0.63570606	0.81056039	0.11489814
0.61854085	0.05197736	0.62961703
0.6186896	0.55642881	0.61112512
0.1263704	0.31335944	0.61220304
0.13006804	0.81941468	0.61857409
0.13175221	0.06635037	0.12573695
0.12645595	0.56462748	0.12161347
0.63177888	0.31973953	0.12048921
0.62820552	0.81218963	0.10332891
0.61334155	0.05450388	0.6324975
0.61617265	0.55534563	0.62310816
0.12225775	0.31320699	0.60709052
0.13585208	0.81526651	0.62391934
0.12243802	0.06124456	0.12399795
0.13506789	0.5634903	0.11529696
0.63796727	0.31669603	0.12205633
0.63392377	0.81368183	0.10798295
0.61711577	0.05685799	0.63291513
0.61764341	0.55342826	0.62014579
0.11849902	0.3139766	0.60648536
0.13687429	0.81586894	0.62559798
0.13003143	0.05537412	0.13046427
0.1401688	0.56359664	0.11306594
0.64778577	0.3130115	0.11847203
0.64682786	0.81367312	0.11700178
0.6279433	0.05697363	0.6289462
0.61945288	0.55511549	0.60770281
0.11530913	0.31563176	0.60634647
0.12886023	0.81636244	0.62184377
0.14024436	0.05535526	0.12718518
0.13052895	0.56451223	0.11643611
0.65806628	0.31210004	0.11632592
0.64723052	0.81353535	0.11144617
0.63235877	0.05583937	0.6246167
0.61745874	0.56169907	0.60968854
0.11762525	0.31602306	0.60443515
0.11771733	0.81434467	0.62102761
0.14057354	0.05994449	0.11911197
0.11431753	0.56448763	0.11260108
0.65885061	0.31263596	0.1243373
0.63022695	0.81189258	0.09814366
0.62549325	0.0573846	0.62320297
0.61506829	0.56680566	0.62634706
0.12324491	0.31415752	0.6029667
0.11594991	0.81305487	0.62566055
0.13060065	0.0614022	0.11799996
0.11158273	0.56175162	0.0999254
0.64752995	0.31028268	0.12987453
0.61215968	0.80488764	0.09569049
0.62026707	0.06193697	0.6235867
0.61426459	0.56406843	0.63264065
0.12157289	0.31426995	0.60362375
0.11552683	0.81273184	0.62672289
0.12639076	0.06140922	0.12500739
0.12768791	0.56083062	0.09859939
0.64052982	0.30408269	0.12234049
0.60477667	0.79923401	0.10532536
0.62608484	0.06685694	0.62216892
0.61593601	0.56306217	0.62032191
0.11584382	0.31535513	0.60641161
0.11135349	0.81286701	0.62268779
0.13295292	0.06397785	0.12691805
0.13544379	0.56345724	0.1054526
0.64594847	0.29822601	0.11863271
0.60489784	0.80306678	0.11367226
0.63406386	0.06908515	0.61930191
0.62228751	0.5679777	0.61359284
0.11450047	0.31718169	0.60981861
0.10710725	0.81358507	0.61705367
0.13898941	0.06894033	0.11820541
0.12310495	0.56342887	0.1105336
0.65181016	0.29703287	0.12665627
0.60390989	0.80888405	0.11884655
0.63647965	0.06897973	0.61512374
0.62845737	0.57214796	0.62348132
0.12029041	0.32175749	0.61148172
0.10965316	0.81499419	0.61380588
0.13851932	0.07234163	0.1060192
0.11353323	0.55858646	0.10836494
0.64536486	0.3011969	0.13026021
0.60129374	0.80825569	0.12182354
0.63290509	0.06915988	0.61296826
0.63129027	0.57097312	0.63269032
0.12403473	0.32565582	0.61110414
0.11542199	0.81654147	0.60822777
0.13496146	0.06860092	0.10350834
0.1230353	0.5547261	0.1052375
0.63189582	0.30509321	0.11738481
0.60004817	0.80577031	0.12304016
0.62753209	0.06916105	0.61617723
0.63222216	0.56713155	0.62034778
0.12096594	0.32530556	0.60861587
0.11046495	0.81801415	0.5976889
0.12853471	0.06031251	0.11275719
0.1321109	0.55700295	0.11137414
0.6202453	0.30557613	0.09928053
0.60198042	0.80708281	0.12246203
0.62321808	0.06582207	0.62017057
0.63522914	0.56391604	0.60438791
0.12183311	0.32324416	0.60912265
0.09620568	0.8202824	0.59535539
0.11906529	0.0561435	0.11821563
0.12605177	0.56121442	0.12235834
0.61520036	0.30456965	0.09850963
0.60185982	0.81145569	0.12403953
0.62274677	0.06011254	0.6207264
0.64025589	0.56105778	0.59903089
0.12712423	0.32408834	0.61457565
0.0924586	0.82189874	0.60326245
0.11257992	0.05822128	0.11283004
0.11750317	0.56185529	0.1246185
0.61616045	0.30724197	0.10819884
0.60046386	0.81101333	0.12753352
0.6265788	0.05750165	0.62491729
0.63990268	0.55941825	0.60376024
0.12862405	0.32665116	0.61884885
0.10382958	0.82098215	0.61965954
0.10953336	0.05932834	0.10901023
0.12339759	0.55871773	0.11483706
0.61587944	0.31214435	0.10725072
0.59588117	0.80331191	0.12400796
0.62605896	0.05930264	0.63098032
0.62800323	0.5585117	0.61329147
0.12936208	0.3278461	0.61762514
0.11166251	0.82069272	0.63553384
0.10770088	0.05321816	0.1153569
0.13574623	0.55808696	0.11266034
0.61161582	0.3137563	0.09620913
0.59152527	0.7974571	0.12277289
0.62244878	0.06180419	0.63053413
0.62108872	0.55802401	0.61949847
0.13250545	0.32591652	0.61734954
0.11219318	0.82358942	0.63957911
0.10658054	0.05115281	0.12376168
0.13458991	0.56161555	0.1206406
0.61196577	0.30962742	0.09100807
0.59511106	0.79995367	0.12950767
0.61971324	0.06300734	0.62583224
0.62724683	0.55795837	0.61855388
0.13675089	0.32315562	0.61985618
0.11747058	0.82595256	0.63013069
0.11074113	0.0577022	0.11769779
0.11745256	0.56562185	0.12191409
0.62152961	0.30483533	0.10345311
0.60593386	0.8070163	0.13099901
0.61999144	0.06415673	0.62255842
0.63282217	0.56025313	0.61011609
0.13727456	0.32411838	0.61991303
0.12656271	0.8252227	0.61948957
0.11923229	0.06744748	0.10562894
0.1081601	0.56579269	0.11852578
0.62781579	0.30452256	0.11269334
0.6083391	0.80886576	0.12779444
0.62449014	0.06703524	0.61737849
0.63104135	0.56488791	0.60073275
0.13229798	0.32721245	0.61657382
0.12621185	0.82455782	0.61852392
0.12204267	0.07150903	0.10828909
0.11700968	0.56295937	0.12169378
0.61861873	0.30762287	0.10726348
0.60593121	0.80291448	0.12542512
0.62896859	0.06887061	0.60745937
0.62746575	0.56729955	0.6012529
0.12770615	0.3236456	0.6155188
0.11448029	0.82604548	0.62102532
0.11020148	0.06836384	0.12156069
0.12755133	0.56494834	0.12821871
0.60264281	0.31032404	0.1049295
0.612654	0.79651381	0.13143525
0.62663425	0.06717339	0.59832829
0.61976009	0.56425956	0.61310248
0.12777465	0.31804197	0.61841206
0.10952692	0.82787932	0.61908944
0.10014402	0.06229304	0.12320123
0.12003042	0.57116996	0.13414738
0.59721876	0.30640871	0.1103071
0.62024384	0.80187494	0.13687688
0.62035145	0.0640059	0.59825603
0.60663184	0.5603165	0.62520358
0.1324471	0.31838139	0.62240861
0.11460487	0.82738176	0.61808565
0.10529635	0.06495947	0.11836284
0.10726008	0.57634739	0.13491441
0.61064436	0.29840122	0.11525756
0.62626824	0.81121968	0.13792987
0.61995958	0.06392005	0.60608037
0.60311527	0.56154462	0.62806604
0.13619937	0.32435836	0.62642648
0.11285818	0.82421931	0.6213126
0.11292657	0.07427431	0.11568717
0.10933092	0.5736912	0.13287677
0.63314255	0.29614617	0.11626382
0.62689965	0.80993463	0.13693169
0.62535383	0.06509919	0.61256171
0.61294922	0.56786733	0.63119586
0.1352156	0.3250798	0.63171977
0.10717881	0.82007815	0.62657578
0.10737485	0.07813356	0.11580822
0.11742351	0.56775719	0.12976512
0.64267283	0.29907395	0.1132091
0.61780632	0.80371477	0.13334442
0.62443029	0.06378496	0.609726
0.62736865	0.57245447	0.64084524
0.13696154	0.32155486	0.63335293
0.11143078	0.81969172	0.63425134
0.10199767	0.07105886	0.11146797
0.11552833	0.56574549	0.1273023
0.63595437	0.301975	0.1117561
0.60561583	0.80461419	0.12898234
0.61764115	0.06241639	0.60035257
0.63323719	0.57051294	0.64208576
0.14309288	0.31849885	0.62975817
0.1177443	0.82352785	0.63890241
0.10939549	0.06554504	0.10376201
0.10994021	0.56965915	0.1314992
0.62690187	0.30331459	0.12241296
0.60769702	0.80953324	0.13383545
0.61932804	0.0644454	0.59403624
0.62987951	0.56696106	0.63131119
0.14005586	0.32073866	0.62640497
0.11730961	0.8261123	0.63515178
0.11974971	0.07183032	0.10283077
0.10952737	0.57087585	0.1403642
0.62803209	0.30408399	0.13230137
0.61707682	0.80911073	0.14736848
0.62841211	0.06944062	0.59402952
0.62470295	0.57168807	0.62573524
0.12374843	0.32254239	0.62846579
0.11625965	0.82447711	0.63200199
0.12587314	0.07608412	0.11254135
0.11596318	0.56570661	0.14653145
0.63078981	0.30706461	0.12838165
0.61785361	0.80228467	0.14474353
0.62363869	0.07079339	0.59930727
0.62393818	0.57676472	0.63062044
0.10755947	0.32125391	0.63639807
0.12495576	0.82119336	0.63541657
0.12883737	0.07032751	0.11596508
0.1184272	0.56053346	0.1426519
0.6199075	0.30978332	0.121072
0.60938484	0.80216344	0.13762217
0.60944407	0.06554454	0.60577248
0.61694696	0.57349786	0.6372549
0.10272513	0.3201208	0.64091492
0.13801283	0.82175446	0.6366276
0.13176156	0.06236915	0.1112434
0.11334432	0.56223148	0.13633464
0.61050409	0.30971477	0.1208707
0.60917727	0.81160231	0.14088631
0.60889764	0.06072018	0.61428925
0.60752242	0.56263503	0.63893776
0.11066169	0.32053615	0.63419266
0.14160653	0.82745662	0.63090834
0.13229101	0.0635934	0.11090086
0.11295769	0.56897894	0.1339456
0.61834207	0.30995342	0.12452321
0.62042516	0.8205275	0.14210887
0.61869801	0.06302159	0.62312897
0.61451156	0.55478327	0.63547063
0.11870862	0.32114218	0.62367287
0.1357981	0.82937911	0.6323365
0.12913378	0.06813948	0.11983209
0.11906674	0.57012131	0.13730451
0.62481102	0.31350436	0.13298277
0.63271634	0.81869258	0.13541291
0.62395937	0.0690335	0.63037323
0.62138067	0.55688538	0.63384871
0.11914527	0.32125451	0.62867308
0.13229641	0.82350925	0.63814859
0.1257978	0.06676163	0.13135551
0.1209946	0.56286972	0.13720235
0.62534183	0.31782877	0.13437328
0.63104847	0.8109749	0.13377577
0.61826416	0.0695146	0.63549333
0.61203805	0.56391178	0.63811325
0.11706352	0.32019967	0.64041351
0.13863716	0.81635776	0.63582996
0.12957965	0.06133954	0.13635825
0.11940076	0.55781167	0.12916144
0.62145267	0.31807904	0.12207074
0.6195278	0.80701204	0.13857883
0.61570753	0.063915	0.6335338
0.6041867	0.56371756	0.64274008
0.11264369	0.31959294	0.6327787
0.14026811	0.8149348	0.63090035
0.13623024	0.05815065	0.13051252
0.12080203	0.56208908	0.12706516
0.6154382	0.31490569	0.1238595
0.61576744	0.81345481	0.14014244
0.6252309	0.06150212	0.62975996
0.61979616	0.55783956	0.63923256
0.1062811	0.32353539	0.61821593
0.13149364	0.81775921	0.62859889
0.13718449	0.05779321	0.12287512
0.12487994	0.56822498	0.13479154
0.60952567	0.31097655	0.13402056
0.62846941	0.82184184	0.13657432
0.63435555	0.06891811	0.63227142
0.63761834	0.56275014	0.62796485
0.10082358	0.32921043	0.61404457
0.11959767	0.81747278	0.62949231
0.1358261	0.05969142	0.12999222
0.12805781	0.56695348	0.13959074
0.60639332	0.31076461	0.13720808
0.64212969	0.81989054	0.13386373
0.62854187	0.07429244	0.64049491
0.63070067	0.57024217	0.62232679
0.09945574	0.32535656	0.62477697
0.12029517	0.81340583	0.6270573
0.13612772	0.0626263	0.14019231
0.12811963	0.56066485	0.13973664
0.61047599	0.31364097	0.13459796
0.63847495	0.80910137	0.13394048
0.6187038	0.06638773	0.64363061
0.61721491	0.56966806	0.62796607
0.10208393	0.31689852	0.63611479
0.13348405	0.81130518	0.62031439
0.1328351	0.06345452	0.13916079
0.12590728	0.55977331	0.13268387
0.61588424	0.31283871	0.13448624
0.63375737	0.80728282	0.12567616
0.61778334	0.05650554	0.63691575
0.61517731	0.56411973	0.63633439
0.11066249	0.31496215	0.63240147
0.13961306	0.81296917	0.62177273
0.12488391	0.06323364	0.13442204
0.12421817	0.56429155	0.12291971
0.61664021	0.3076338	0.13917368
0.65054649	0.81577305	0.11079103
0.62592246	0.05979502	0.63205844
0.62344876	0.5598254	0.63535694
0.12296532	0.31600434	0.62066159
0.126762	0.81362184	0.63491395
0.11895331	0.0653098	0.13804433
0.12200966	0.56560873	0.12211782
0.61561852	0.30462475	0.13289771
0.66229538	0.81824	0.1068684
0.6327471	0.06700746	0.64150659
0.63121331	0.56069554	0.63179376
0.13886156	0.31224192	0.62309273
0.11598294	0.81188786	0.64240163
0.11800085	0.06974566	0.14693036
0.12169609	0.56293387	0.1313086
0.61710464	0.30895257	0.12969767
0.65185014	0.8105326	0.11846581
0.63024972	0.06622191	0.64564973
0.62881734	0.56273	0.63283655
0.14932563	0.30934298	0.63800842
0.12473002	0.81286282	0.6360625
0.12105776	0.06975557	0.14603882
0.12515591	0.56406678	0.13340452
0.62276575	0.31366897	0.13212908
0.63866567	0.80472912	0.12813148
0.62697379	0.05623204	0.63559887
0.62532623	0.56123742	0.63815387
0.141267	0.31013187	0.64570199
0.13820711	0.81557409	0.62192674
0.12513905	0.06485007	0.13613556
0.1264226	0.56843801	0.12293346
0.62562856	0.31397076	0.12557984
0.63591135	0.80697136	0.12046394
0.62728356	0.05375796	0.63205122
0.63523076	0.55824426	0.64282488
0.12287821	0.31161919	0.63976886
0.1352586	0.81723406	0.61937086
0.12444111	0.06116849	0.13306266
0.1218182	0.57126865	0.11577347
0.6206963	0.31178242	0.12294805
0.63879414	0.81436013	0.11175146
0.62863272	0.05994012	0.63641875
0.64584944	0.56032509	0.63924939
0.12487636	0.31160344	0.63151491
0.12022925	0.81642714	0.63229667
0.12175152	0.06157354	0.13785858
0.11645007	0.57021864	0.11778525
0.61436519	0.3104649	0.12331325
0.63513608	0.8148186	0.1137484
0.62745952	0.06371191	0.63604442
0.64625751	0.56438741	0.6279596
0.13419503	0.30919447	0.63228829
0.11308505	0.81346018	0.63998277
0.11743348	0.06079194	0.14361061
0.11979095	0.56689534	0.12730204
0.61978161	0.31221272	0.12423396
0.62543347	0.8078072	0.12111259
0.62350122	0.05748672	0.62317583
0.64101222	0.56334529	0.62002623
0.12669967	0.30761579	0.64295122
0.12749858	0.81116669	0.63219882
0.11396696	0.05928562	0.14640721
0.12759977	0.56492131	0.13277226
0.63074739	0.3152053	0.12049268
0.62337637	0.80568262	0.12138812
0.61865116	0.05088997	0.61429048
0.63319775	0.55771113	0.62242406
0.11653725	0.30800465	0.64510141
0.14772891	0.81283072	0.62438987
0.11454255	0.05656754	0.14397568
0.12802924	0.56359981	0.12703748
0.63300885	0.3149235	0.1173439
0.63291216	0.81325566	0.11223161
0.61784937	0.054096	0.62305469
0.62358521	0.55470276	0.62627003
0.11337189	0.3103676	0.63470942
0.15081835	0.81737237	0.62707605
0.11746174	0.05426566	0.13759481
0.12444234	0.56348887	0.12555288
0.62783859	0.3106611	0.12002844
0.64653462	0.81968037	0.11072512
0.61984682	0.06419543	0.6368302
0.6145323	0.55678653	0.62186131
0.11556213	0.31331091	0.63568862
0.13197082	0.81706091	0.62960222
0.12151287	0.05681043	0.1313157
0.12807952	0.56126887	0.1372856
0.62089256	0.30844075	0.12688064
0.64399564	0.81648754	0.12397326
0.62083604	0.06584377	0.64147344
0.60937269	0.56041462	0.61089739
0.11513606	0.31551787	0.64317914
0.11701132	0.81077229	0.62276766
0.12699912	0.06268231	0.12867777
0.13888948	0.55830269	0.14806861
0.62240806	0.31071793	0.13232889
0.62815697	0.80821322	0.12781225
0.61816303	0.05623101	0.63905305
0.61136982	0.56067423	0.60706868
0.1116855	0.31558229	0.63098063
0.12916459	0.80849378	0.61960889
0.12962137	0.06554719	0.12679441
0.14070652	0.55673141	0.14045371
0.62999269	0.31006305	0.13612211
0.62358495	0.80696784	0.12039003
0.61129611	0.0502785	0.63611958
0.61738516	0.55885238	0.6191479
0.11329314	0.31598236	0.61347609
0.14378967	0.81390522	0.62592683
0.12697585	0.06015958	0.12188598
0.13549543	0.55563108	0.12447394
0.63029925	0.30187125	0.13882099
0.62771675	0.80932742	0.115458
0.60364109	0.05762662	0.63636301
0.61872101	0.55878922	0.63101552
0.12097823	0.3172433	0.61055746
0.13629915	0.81703497	0.62692148
0.11963767	0.05447237	0.11803874
0.13412312	0.55296223	0.11813906
0.62400636	0.29557033	0.13733551
0.62253479	0.8061918	0.1148625
0.60328857	0.06613243	0.63847804
0.61256477	0.56155309	0.62185388
0.12312655	0.32166058	0.61959524
0.12656615	0.81421853	0.62038576
0.11495076	0.05588028	0.12144059
0.13813171	0.55168305	0.12464218
0.61633542	0.29810915	0.12991721
0.61799383	0.79929626	0.10997487
0.60802881	0.06293482	0.63320625
0.61003398	0.56355106	0.60875455
0.11672786	0.31981561	0.62970836
0.12874113	0.80997584	0.61083678
0.1164641	0.05972861	0.12992939
0.13914215	0.55225686	0.1279081
0.61662012	0.30091219	0.12282898
0.61985577	0.79682245	0.10508697
0.59941267	0.05654429	0.62382016
0.61625438	0.56024289	0.61108283
0.11124858	0.31527038	0.62803592
0.13588359	0.81215666	0.60521316
0.11584856	0.05903812	0.13589672
0.13538575	0.55226591	0.1222333
0.62479732	0.30169765	0.12640964
0.61860046	0.79993857	0.11311931
0.59115479	0.06143283	0.62040396
0.62531055	0.55877502	0.62006133
0.11828651	0.31642258	0.6176232
0.13781137	0.82125306	0.60631356
0.11383319	0.05407541	0.13002495
0.12776374	0.55171156	0.12022459
0.63116197	0.30373668	0.13409347
0.62094789	0.80197989	0.12548301
0.59868246	0.07067796	0.62485665
0.62852921	0.5650667	0.61746776
0.11208336	0.31998481	0.61671126
0.13385922	0.82530044	0.61233839
0.12090077	0.05324273	0.11673111
0.12270115	0.55302296	0.124831
0.6302964	0.30553024	0.13331621
0.62709288	0.79669013	0.13021654
0.61282074	0.07226674	0.62983851
0.62291376	0.56690511	0.60807834
0.10029378	0.32176009	0.62710043
0.13037276	0.82097614	0.61510926
0.13057426	0.05857381	0.11737678
0.12411354	0.5553882	0.12520962
0.62429462	0.30524146	0.12719832
0.63296385	0.79096057	0.12540946
0.6206391	0.06519497	0.6309907
0.61655466	0.56535741	0.60768343
0.10490196	0.32065759	0.62983666
0.12421139	0.81863712	0.61269121
0.14382132	0.05952612	0.12656371
0.12799864	0.55530848	0.11322218
0.6212303	0.30299475	0.12779698
0.63098176	0.79474472	0.11942396
0.62204386	0.06201771	0.6252615
0.62057053	0.56741573	0.62295239
0.11834114	0.31879638	0.6164567
0.11705164	0.81810655	0.61266316
0.15571973	0.05051375	0.12484418
0.11880594	0.55140005	0.10207112
0.62388541	0.29971339	0.13167747
0.62434707	0.7995607	0.12168803
0.62197907	0.06750522	0.62014739
0.63214006	0.57038398	0.63691867
0.11715597	0.31781454	0.59872959
0.11742588	0.81831474	0.61758069
0.15581434	0.04609422	0.11430982
0.10683197	0.5505646	0.11092175
0.62301181	0.29807037	0.12975444
0.62554798	0.79669965	0.12614806
0.62228779	0.07370832	0.61653123
0.63459883	0.56961548	0.63644643
0.10839939	0.31917886	0.59436033
0.12087681	0.82160291	0.62186109
0.1374316	0.05128113	0.11027499
0.10885754	0.55458739	0.11890516
0.61412299	0.29896071	0.11778244
0.63131878	0.79192676	0.12447004
0.62302494	0.07205139	0.61608283
0.62829198	0.56672612	0.62926674
0.11117987	0.31981324	0.60871552
0.11982369	0.82075696	0.6198142
0.12082953	0.05384281	0.11713453
0.12093174	0.55984441	0.10899846
0.60725064	0.30032662	0.10436388
0.63195656	0.79371044	0.11955373
0.62419409	0.06570705	0.62232924
0.62841259	0.56658594	0.63415503
0.12651331	0.31869005	0.62040421
0.11186269	0.81702319	0.61466712
0.12862952	0.05060544	0.12205965
0.12233157	0.5607706	0.10233196
0.61459613	0.3004904	0.09972634
0.62268008	0.80115316	0.11490809
0.62619961	0.0653321	0.62137152
0.63542464	0.56832415	0.64198461
0.13650248	0.31555803	0.60637326
0.10582222	0.81845691	0.61459006
0.14263168	0.05057873	0.11777159
0.11733364	0.55827604	0.11942109
0.63352158	0.29857089	0.10157754
0.6132955	0.80540701	0.11373418
0.63047547	0.07009506	0.61352847
0.63590928	0.56570572	0.63111529
0.12771057	0.3126015	0.59747254
0.10781693	0.82403039	0.61836813
0.14019844	0.05678301	0.11030209
0.12130109	0.55809374	0.13943758
0.64305508	0.29663892	0.09588459
0.61829729	0.80054378	0.11860748
0.63612249	0.07135558	0.61405137
0.62551986	0.55968489	0.61127605
0.11446688	0.31630828	0.60234771
0.10854144	0.82617072	0.62061468
0.12548305	0.05984946	0.11046494
0.13638405	0.56245024	0.14480535
0.6365976	0.29747244	0.08910394
0.63335045	0.79471784	0.12563888
0.6401662	0.0668589	0.62259154
0.61139772	0.55784943	0.60362945
0.1203088	0.32090236	0.60889443
0.0985534	0.82130328	0.62173418
0.11723447	0.05620495	0.11868312
0.14817139	0.56432898	0.13262348
0.63052763	0.30200444	0.09580237
0.63734475	0.7955103	0.12693447
0.64098576	0.06190672	0.623836
0.6112371	0.56104113	0.6072582
0.14180097	0.31598979	0.60847751
0.08851474	0.81337889	0.62215035
0.12231015	0.05428817	0.12346356
0.13797482	0.56147658	0.12122918
0.63620397	0.30415107	0.10621974
0.62430461	0.80156911	0.12385544
0.64060654	0.05813948	0.61450443
0.62457694	0.56120013	0.61262287
0.15072105	0.31499333	0.60598292
0.09221387	0.81145002	0.62052569
0.12734739	0.05669914	0.12139707
0.11726203	0.55711476	0.12265242
0.64709204	0.29993132	0.1046445
0.61580813	0.80902024	0.11885965
0.63917817	0.05521523	0.60859827
0.63541407	0.55669581	0.61345003
0.13922899	0.3223563	0.61116817
0.10286988	0.81630172	0.61646404
0.11540174	0.06199186	0.11905834
0.10769263	0.55644525	0.12968172
0.64527319	0.29815224	0.09718319
0.61995635	0.80982906	0.11845498
0.63543267	0.05663972	0.60993622
0.63145981	0.55474222	0.61068876
0.12541844	0.32237969	0.62367471
0.11089961	0.81780062	0.61455899
0.10751767	0.06628005	0.11875673
0.11476526	0.56028769	0.12500699
0.62733345	0.30318308	0.09428367
0.62176468	0.80426547	0.1284114
0.63496941	0.05808511	0.61482125
0.62044607	0.5587024	0.60852292
0.12571619	0.31283121	0.63042986
0.11558957	0.81431501	0.61846951
0.12016567	0.06725173	0.1187296
0.1251001	0.56057148	0.10865243
0.62074204	0.30932214	0.0945708
0.6093181	0.80104206	0.13224826
0.63637784	0.05574154	0.61689656
0.61668379	0.56562034	0.60966182
0.13980918	0.30715408	0.62809177
0.11881251	0.8153645	0.62203441
0.1295641	0.06560866	0.11598627
0.12518242	0.55771554	0.10547638
0.63674737	0.30921395	0.09383676
0.59204057	0.80503671	0.12361881
0.63453579	0.05534007	0.61044832
0.62348044	0.56659975	0.60720155
0.1553666	0.31100548	0.63082365
0.12500614	0.82018819	0.61815541
0.12908603	0.06439175	0.11141432
0.11524006	0.55899006	0.1217289
0.63742227	0.30237118	0.09708953
0.58492376	0.81120371	0.11226172
0.6325546	0.05802065	0.60356603
0.62352211	0.56095064	0.59591248
0.14954185	0.31712745	0.63200469
0.13514162	0.81879482	0.61489576
0.12654628	0.06415315	0.11214155
0.11440004	0.56227195	0.13256316
0.61827186	0.30114934	0.10585709
0.59436426	0.81068171	0.1083029
0.6316709	0.06103325	0.6054519
0.60977623	0.55555216	0.58805718
0.13195635	0.31746767	0.62442639
0.14173828	0.81286475	0.61912466
0.12572909	0.06131295	0.11947607
0.12647464	0.56496345	0.12220986
0.61268873	0.31148945	0.12086532
0.61375363	0.80582264	0.11180695
0.62989106	0.05928529	0.61166584
0.60386919	0.55711195	0.58940634
0.13175919	0.31189619	0.61293836
0.13704564	0.81150358	0.62448371
0.12189036	0.05710555	0.12700646
0.13329749	0.56671533	0.10313001
0.62279894	0.31978456	0.13487737
0.62232934	0.80589354	0.11642053
0.63234124	0.05463537	0.6129579
0.61708363	0.56090917	0.60329808
0.14169871	0.30845031	0.61103351
0.11966756	0.81382925	0.62049029
0.11465054	0.05740517	0.12795052
0.12570565	0.56687752	0.09735875
0.61995064	0.31857556	0.13709932
0.61718914	0.8127132	0.11894299
0.64137018	0.05322339	0.61051311
0.6289659	0.55908501	0.62568119
0.13562785	0.31093103	0.61940032
0.10141624	0.81412513	0.618231
0.10878655	0.06307055	0.12569714
0.11233888	0.56572059	0.10754191
0.60355178	0.31250873	0.13514289
0.61266806	0.81759211	0.1273962
0.6358343	0.0565208	0.6133442
0.6299779	0.55231875	0.63692806
0.11542987	0.31757903	0.61725513
0.09756163	0.81185582	0.62255733
0.11422104	0.06737246	0.12762489
0.11007334	0.56202015	0.11623374
0.59695707	0.31129782	0.1394001
0.6232194	0.81065591	0.13960832
0.61911713	0.06060632	0.62263776
0.62697641	0.55177418	0.63297024
0.10350497	0.32005196	0.60978265
0.10280244	0.81283557	0.63134841
0.13077201	0.06693989	0.12903652
0.12060195	0.55869458	0.11472534
0.60005518	0.31796952	0.13997381
0.63138115	0.80171308	0.14559082
0.61469408	0.05942407	0.62862303
0.63062367	0.55652772	0.63127274
0.10678036	0.31938501	0.60502823
0.1075403	0.81979696	0.63632798
0.13801723	0.07083125	0.12158149
0.12016365	0.55676733	0.10712897
0.60984172	0.32312147	0.13062478
0.62680887	0.80415569	0.1365107
0.61936879	0.05646311	0.62676503
0.64027977	0.55923297	0.64391999
0.11168438	0.32290156	0.60308096
0.11408634	0.82713467	0.6302208
0.1342081	0.07321996	0.11325349
0.1050097	0.55691706	0.10679009
0.61916076	0.31526893	0.12473302
0.61828653	0.81069768	0.11678699
0.6176534	0.05884938	0.62217315
0.64327823	0.55702866	0.65124253
0.108834	0.32934246	0.60147186
0.12167124	0.82923855	0.61640962
0.12929251	0.06957066	0.11223551
0.10886289	0.55977392	0.10741255
0.61896747	0.30416209	0.13121448
0.6196653	0.81192663	0.10245375
0.60795549	0.0628247	0.62108216
0.63224483	0.55789731	0.64216238
0.10910606	0.32707309	0.60157154
0.12538401	0.8261067	0.60984995
0.12304474	0.06562364	0.11363543
0.12275563	0.56346265	0.10710882
0.61136224	0.30340089	0.14435868
0.6295817	0.80728946	0.10786632
0.59925698	0.06302128	0.62419802
0.61512345	0.55961706	0.63339256
0.11403297	0.32347409	0.60893401
0.13129985	0.8234614	0.61934699
0.11312956	0.06513134	0.11551969
0.12938965	0.56654167	0.10691449
0.6098104	0.30942514	0.1503535
0.62895001	0.80510921	0.12395254
0.60357579	0.06178295	0.6264381
0.61326286	0.55844464	0.63727856
0.11767023	0.32265485	0.61971703
0.13494953	0.824536	0.62609715
0.10418143	0.06788643	0.12274627
0.12953927	0.56796298	0.10668654
0.61997659	0.31143708	0.14954437
0.61541812	0.80676277	0.12878916
0.61963293	0.06283261	0.62551686
0.62462012	0.56066301	0.64864797
0.11708292	0.32302799	0.62415387
0.12851123	0.82755984	0.62520234
0.10489283	0.07035878	0.13163931
0.13037744	0.57072567	0.10968374
0.63017376	0.30695449	0.14490507
0.60465309	0.80970105	0.11601007
0.63310968	0.06700543	0.62315935
0.63032102	0.56492757	0.65617906
0.11693493	0.32295811	0.61750875
0.12077806	0.82767935	0.62180802
0.11111511	0.07055934	0.12130795
0.13300814	0.57505344	0.12154479
0.62962793	0.30635684	0.13600385
0.60846624	0.80815915	0.11069294
0.63703994	0.07147836	0.62389585
0.62490553	0.56740605	0.64696445
0.12098958	0.32191892	0.613396
0.12717358	0.82309927	0.6223499
0.11714059	0.06857865	0.10701069
0.13135408	0.57611684	0.13515714
0.62439873	0.30873485	0.12735487
0.6225995	0.80229571	0.12302317
0.63699038	0.07002979	0.62994624
0.61742124	0.56886196	0.62823387
0.12424322	0.32177171	0.62059609
0.14506393	0.82188788	0.63049435
0.11856871	0.06846314	0.11609798
0.12502084	0.57342072	0.14131374
0.63046258	0.30595787	0.11926257
0.62938676	0.80323014	0.13358737
0.6389039	0.06754522	0.63533268
0.62224665	0.57134793	0.61469245
0.12124644	0.32335957	0.63075336
0.15389204	0.8285495	0.63813294
0.11503718	0.07021508	0.1256852
0.1186745	0.57235808	0.13679583
0.63779868	0.2999785	0.11312883
0.62109464	0.80924552	0.12567267
0.6435589	0.06938135	0.63580711
0.63212022	0.57595996	0.61889553
0.11994325	0.32461276	0.63562232
0.13860231	0.83175765	0.63772623
0.11190492	0.06786191	0.12005873
0.11705256	0.5740658	0.12837372
0.62988785	0.29871436	0.11139667
0.60983819	0.81031109	0.11080918
0.64310662	0.07339362	0.6346352
0.63595989	0.57832795	0.62646722
0.12604149	0.32194717	0.63784119
0.11941461	0.82492412	0.63528933
0.11150313	0.06234646	0.1141102
0.11911027	0.57647755	0.12988228
0.62084965	0.303697	0.11271338
0.6173992	0.81156922	0.10544276
0.6338252	0.0734992	0.63534033
0.6296929	0.57493473	0.61977856
0.13508914	0.31799772	0.64406309
0.1132909	0.81711078	0.6318872
0.11173464	0.06086757	0.11534694
0.11707825	0.57538177	0.1405265
0.62343443	0.31132853	0.11180736
0.63150802	0.81591107	0.11505569
0.63049027	0.07049324	0.63438499
0.62310022	0.56947791	0.60645547
0.14222749	0.31478068	0.64979927
0.12334476	0.81725208	0.63226697
0.11223737	0.06598602	0.12235198
0.11233102	0.56981234	0.14411102
0.63282568	0.31492954	0.10798712
0.63025557	0.81901257	0.12769335
0.63057259	0.06820737	0.63004798
0.62738841	0.5681617	0.61295498
0.14196025	0.31050829	0.64866121
0.13165387	0.82199841	0.64044604
0.11847734	0.07191013	0.12790872
0.11813937	0.56569957	0.13780478
0.63447655	0.31367108	0.1102795
0.6198133	0.8169641	0.13190441
0.6252153	0.06651308	0.62651492
0.6365654	0.57044149	0.622174
0.13746007	0.3091982	0.63906103
0.12507359	0.82154249	0.64321812
0.13039926	0.07212859	0.12404447
0.12780718	0.56722854	0.13405934
0.62807805	0.3121097	0.12139698
0.62234215	0.81308535	0.13174235
0.62093259	0.06467646	0.62511964
0.63595395	0.56983945	0.61549558
0.13698527	0.31476572	0.63131646
0.11581046	0.81485704	0.63495479
0.14016125	0.06717035	0.11229719
0.12583611	0.56846405	0.14342032
0.62598959	0.31357689	0.13116012
0.63790671	0.81369848	0.13385718
0.61942944	0.06211928	0.62294094
0.62516179	0.56500196	0.6060437
0.13232612	0.3236639	0.62982381
0.11882047	0.81165017	0.626444
0.14094815	0.06438517	0.10989154
0.12411234	0.56536385	0.15486215
0.63174111	0.31554496	0.1309841
0.64321153	0.81821136	0.13676255
0.61773624	0.05994712	0.61997031
0.61760311	0.56071886	0.60893965
0.12323234	0.32621371	0.63130875
0.12416658	0.81707701	0.62523278
0.13591799	0.06723969	0.12161063
0.13066512	0.56019981	0.14923188
0.63619486	0.31262573	0.1233766
0.63428099	0.82006413	0.13353537
0.61450824	0.05947178	0.62006401
0.62016841	0.56073647	0.61870177
0.1243437	0.32463896	0.63020848
0.12322353	0.82169974	0.62292529
0.13526663	0.06880973	0.13503962
0.13901259	0.55735099	0.13432506
0.63212778	0.31041134	0.11671188
0.63179061	0.81898726	0.12372902
0.60927574	0.05982213	0.6243777
0.62801691	0.5623606	0.62601272
0.13426064	0.32358259	0.62972172
0.11726471	0.82090042	0.61581209
0.1461203	0.06424803	0.13921602
0.14128667	0.55564167	0.13446255
0.62104593	0.3176446	0.11862932
0.64075058	0.81521976	0.11598606
0.60573291	0.05965679	0.62797217
0.63237482	0.56154554	0.62544295
0.14316708	0.32311436	0.63969253
0.11909749	0.81882875	0.61062074
0.15200239	0.05984315	0.13943013
0.1363585	0.55437976	0.14586504
0.61288898	0.31896954	0.12729821
0.64523972	0.80977517	0.11524785
0.61019865	0.05923461	0.62454431
0.62939267	0.55675375	0.62624431
0.14136706	0.32044656	0.64779566
0.13237443	0.8211214	0.62196182
0.14153556	0.06176446	0.14714738
0.13164292	0.55449175	0.1502072
0.61025449	0.31573719	0.12934679
0.63751185	0.80705196	0.11846146
0.6204868	0.06074223	0.61708496
0.62560213	0.55485197	0.63548405
0.12538921	0.3167083	0.64261645
0.14803019	0.82290995	0.64031851
0.13303794	0.06501838	0.15798026
0.13424814	0.55581825	0.14107896
0.60975027	0.31823239	0.12354102
0.62716903	0.80652318	0.11896848
0.62547583	0.06242559	0.61613715
0.62913841	0.55594615	0.64606397
0.11305752	0.31410973	0.63771461
0.14713107	0.82152275	0.65024084
0.13556885	0.06397019	0.15885306
0.14303471	0.55876817	0.13398639
0.61182552	0.31961596	0.11864272
0.62418591	0.80549981	0.11800234
0.6225714	0.06127553	0.61917687
0.62905648	0.55585274	0.64557614
0.11860527	0.31495718	0.64338712
0.13590296	0.81990132	0.64212447
0.14011744	0.05889967	0.14672968
0.14991115	0.56392602	0.1397695
0.61950526	0.3115985	0.12209544
0.62973385	0.80212982	0.11996905
0.62269581	0.0597148	0.62023384
0.62939933	0.55695727	0.63047717
0.12676128	0.3195119	0.6502822
0.13575799	0.81673432	0.63298968
0.13359985	0.05445784	0.13642831
0.15029969	0.56844247	0.13984797
0.62951574	0.30139878	0.12908723
0.63234047	0.80021507	0.12474016
0.63061756	0.06165415	0.6234367
0.62930141	0.5569622	0.61481958
0.11978088	0.32117181	0.64535147
0.1466136	0.81315489	0.63807775
0.12120324	0.0559261	0.13978853
0.14416493	0.56914792	0.12380769
0.63710498	0.2982929	0.13241685
0.62860236	0.8053559	0.12922995
0.63719651	0.06240983	0.62986175
0.62445437	0.55807582	0.6178902
0.10263642	0.31583523	0.64206005
0.13985967	0.81510463	0.64911913
0.11587729	0.06406686	0.14723448
0.14040685	0.56908198	0.11413263
0.63851916	0.30266848	0.13183978
0.62963103	0.81046704	0.13517868
0.62741778	0.06176733	0.63672993
0.62429249	0.56318052	0.64036864
0.09321368	0.30929536	0.64518705
0.12684263	0.81992565	0.64756795
0.11806937	0.06877268	0.14351831
0.1340129	0.56910649	0.12373197
0.63342365	0.30945779	0.13374546
0.64055377	0.80681802	0.13968518
0.61163618	0.06295358	0.63698967
0.62890863	0.56587518	0.65168893
0.10076131	0.30870604	0.639892
0.12894455	0.82096177	0.63968587
0.12282479	0.06480841	0.1374619
0.12007028	0.56701065	0.1374837
0.62794598	0.30947019	0.13363722
0.64769167	0.8025193	0.1325219
0.61327002	0.06368328	0.62973936
0.63780543	0.56293989	0.64055796
0.11088138	0.31019497	0.62480691
0.1401094	0.81708616	0.63471034
0.1283456	0.0626058	0.13796817
0.11705088	0.5652283	0.14267161
0.62745556	0.30566295	0.1389444
0.63982035	0.80570081	0.12913663
0.6297978	0.06103668	0.62561488
0.6405252	0.55888948	0.62516759
0.10928151	0.30940731	0.61559454
0.13577107	0.80925398	0.63444288
0.13172791	0.06543749	0.13393104
0.12960037	0.56169382	0.13642823
0.62773201	0.30128511	0.1446267
0.62730812	0.81082497	0.13489706
0.63694712	0.06016825	0.62857787
0.62993122	0.5566236	0.62509415
0.10273608	0.30752425	0.61812223
0.12268424	0.80605101	0.63434326
0.13004616	0.06718163	0.12258243
0.13569368	0.55459313	0.12334949
0.62619964	0.29966769	0.14095979
0.62523785	0.8097246	0.13357767
0.62502369	0.0620815	0.63154991
0.61506628	0.55751371	0.62961137
0.10422866	0.30966879	0.62146331
0.11505323	0.80765026	0.62873344
0.12514295	0.06052742	0.11167909
0.12450621	0.54894026	0.11507861
0.62426884	0.30068791	0.13905616
0.63275172	0.80547213	0.12628132
0.61174648	0.06469991	0.63058573
0.60833253	0.55952784	0.62266423
0.11331149	0.31677967	0.61675757
0.11990409	0.80856824	0.61893652
0.12959448	0.05169153	0.10460072
0.11522489	0.5466591	0.11587797
0.6231334	0.30110225	0.1410308
0.64262932	0.80456577	0.11739764
0.61059428	0.06742025	0.63312746
0.60728422	0.56045243	0.61453782
0.1158886	0.31859269	0.61167882
0.12484849	0.80685085	0.61818359
0.13831972	0.04723733	0.10568173
0.11645929	0.54835299	0.11962242
0.62372144	0.30007969	0.14097829
0.64506372	0.80730216	0.11555945
0.61516201	0.068535	0.64042862
0.60311874	0.56153604	0.62523142
0.11134565	0.31530603	0.61521583
0.11996625	0.80571343	0.62057059
0.13493023	0.05154932	0.11281771
0.11836759	0.5531617	0.12001056
0.62303813	0.3025993	0.13538701
0.63928304	0.80937084	0.12309232
0.60846096	0.06574574	0.63974303
0.59684858	0.56642101	0.64115337
0.10663513	0.31339287	0.62040617
0.10695218	0.80736703	0.61531644
0.12804333	0.05732486	0.11660084
0.11654438	0.55032091	0.1186064
0.61609931	0.3057283	0.12529277
0.63756076	0.8066426	0.12733737
0.59641087	0.06200066	0.6305063
0.60245923	0.57269566	0.6455935
0.11082255	0.31290953	0.61953338
0.10585035	0.81019056	0.60751843
0.13134812	0.05817493	0.11321868
0.11649678	0.54559812	0.11858875
0.60523921	0.30285009	0.11912951
0.63900634	0.80061604	0.11797823
0.59746058	0.06077468	0.62599974
0.61401969	0.57404257	0.63468971
0.11872571	0.31310599	0.61730252
0.11442009	0.80998048	0.60301452
0.13225098	0.05650456	0.11082325
0.12097197	0.55277581	0.12290691
0.60296219	0.29677893	0.12096665
0.62875358	0.79536454	0.10305058
0.61368813	0.06242027	0.62249921
0.61645009	0.56757182	0.62401789
0.12592436	0.3142458	0.61726612
0.11778122	0.80747032	0.60261717
0.12612582	0.05418215	0.11973067
0.12633306	0.56253176	0.11705883
0.61209784	0.29567082	0.12116953
0.60983555	0.79671152	0.10274864
0.62593116	0.06389906	0.61633093
0.60828602	0.56265699	0.61981688
0.12814556	0.31530478	0.61652858
0.11539355	0.80816128	0.5989237
0.1203908	0.0512854	0.13055368
0.12763566	0.56331666	0.1034435
0.62096508	0.30118317	0.11509725
0.59976451	0.79945576	0.11261858
0.62785128	0.06385876	0.61463228
0.59903554	0.56405819	0.62008035
0.12745477	0.31455817	0.61295078
0.11496212	0.81490962	0.59079436
0.1158235	0.04924104	0.13074889
0.12055531	0.56035823	0.10679727
0.62613423	0.307657	0.11548045
0.6081384	0.7985483	0.11289849
0.62430064	0.0626322	0.61725967
0.59680782	0.56508731	0.61899294
0.12805422	0.31347162	0.61174786
0.11346735	0.82242316	0.58890067
0.10964769	0.0500422	0.12241022
0.11300699	0.55712247	0.11812853
0.63121306	0.31139186	0.12195871
0.61779458	0.79459832	0.10404639
0.62699803	0.06136739	0.62044313
0.60218059	0.56023128	0.61584033
0.1324037	0.31516514	0.61771936
0.10684714	0.82301111	0.59890855
0.10129625	0.05269811	0.11421617
0.11735093	0.55413987	0.11752837
0.6362393	0.31345183	0.1240576
0.62117793	0.79869101	0.10072142
0.63560665	0.06106621	0.62369007
0.61020642	0.55543327	0.6131773
0.13299352	0.3174239	0.6271584
0.1000693	0.81873984	0.61008205
0.09551778	0.0551101	0.11659766
0.12287207	0.55509675	0.1082072
0.63528488	0.31381475	0.12189493
0.62283835	0.80647812	0.10905509
0.63241252	0.06080628	0.62845975
0.61864453	0.55398661	0.61291658
0.12340507	0.31782897	0.62810401
0.09896682	0.81625154	0.61267933
0.09324316	0.05776758	0.12106159
0.12264934	0.56017567	0.10519387
0.62222862	0.30800904	0.11596694
0.62531017	0.81150212	0.11860641
0.61471617	0.05722751	0.63392137
0.62551067	0.55574954	0.61373046
0.11560489	0.31770292	0.62054555
0.10023804	0.81919237	0.61024473
0.09669887	0.06097462	0.11750775
0.12051257	0.56445868	0.11241593
0.61450686	0.30119872	0.1111737
0.62264574	0.81090075	0.11474773
0.60833729	0.053636	0.63217882
0.6312045	0.55803269	0.61422699
0.12425396	0.31962103	0.61258126
0.1022183	0.821383	0.61411606
0.10980494	0.06490485	0.11132995
0.11986454	0.5611065	0.12128874
0.61430315	0.30416348	0.11358543
0.61510449	0.80696678	0.10887607
0.61368549	0.05501746	0.62463105
0.63392715	0.55820356	0.61253666
0.1338918	0.31991095	0.6073206
0.10259347	0.81969343	0.62308469
0.12462193	0.06549092	0.11597615
0.1195087	0.55595267	0.12055493
0.61376984	0.3091539	0.12517484
0.60630309	0.80673271	0.11182421
0.61845835	0.05686346	0.6267746
0.63187511	0.55843478	0.6130499
0.12679227	0.31715191	0.60494274
0.10560733	0.81690138	0.62578928
0.13093251	0.06592311	0.12935446
0.12156621	0.55941116	0.11492438
0.60691682	0.31001188	0.13265489
0.60207906	0.81129811	0.12118926
0.62077059	0.05606094	0.63590507
0.62624439	0.56130281	0.61379046
0.1089239	0.31522807	0.60378816
0.1119819	0.81943751	0.62691486
0.12963782	0.07001363	0.13963853
0.12341496	0.56928361	0.11426386
0.60352184	0.30716313	0.1256438
0.60183754	0.81306365	0.12605313
0.62138334	0.05366222	0.6382911
0.6202643	0.56071172	0.6156269
0.10903816	0.31619816	0.60462319
0.11860024	0.8258476	0.63129036
0.12844361	0.07109847	0.13968511
0.12208814	0.57284513	0.11921882
0.61709706	0.30740679	0.11506253
0.6087081	0.81123683	0.12128543
0.6181847	0.05371376	0.63290565
0.62021308	0.55663964	0.62241975
0.12463926	0.31860271	0.61081834
0.12059461	0.82765345	0.63934883
0.1347928	0.06788048	0.13285961
0.12478787	0.56729413	0.12547431
0.63148323	0.31007495	0.11359073
0.62043654	0.81052445	0.11359835
0.61603064	0.05802278	0.62846327
0.62897838	0.5535532	0.62152854
0.13240755	0.31984296	0.6171568
0.11595656	0.82158152	0.64286158
0.14055146	0.06660386	0.12800754
0.12744865	0.56635009	0.12675332
0.63131821	0.31001587	0.11561509
0.62391727	0.81232198	0.11311541
0.61490923	0.06329582	0.62932249
0.63545037	0.5545213	0.61057879
0.11994841	0.31887913	0.61773471
0.11106608	0.81579204	0.63635984
0.13009929	0.0671055	0.13012469
0.1270185	0.5745706	0.12082064
0.62456277	0.30428559	0.10956569
0.61826265	0.8132612	0.11758121
0.61302818	0.06375504	0.62694974
0.62934018	0.55826374	0.60751957
0.10349689	0.31795517	0.61689994
0.11773047	0.81675808	0.62624893
0.1197216	0.06602735	0.12982878
0.12400888	0.57844647	0.11401272
0.62266057	0.30050573	0.10050134
0.61485089	0.80975121	0.1219256
0.61943677	0.06261082	0.61518422
0.62740297	0.56071325	0.61589659
0.10835222	0.31975594	0.6187276
0.13195643	0.81817429	0.62360203
0.12062414	0.06329476	0.12231483
0.11824412	0.57201188	0.11367252
0.62882292	0.30404583	0.10897894
0.62071506	0.80224452	0.1209784
0.62940098	0.06582063	0.60319433
0.63403635	0.56038278	0.6223452
0.13612501	0.31966041	0.61737092
0.13616637	0.81374437	0.62910156
0.12955677	0.06130459	0.11830119
0.11392297	0.56730149	0.11879317
0.63698156	0.3102201	0.11753144
0.62766244	0.79680781	0.12130093
0.63180966	0.06949321	0.59925069
0.64087954	0.56075872	0.61980128
0.15056561	0.31969697	0.61412913
0.12756865	0.81043441	0.63596957
0.1345909	0.06200276	0.11777119
0.12322031	0.56861388	0.12127296
0.63924371	0.31085865	0.11748878
0.62278476	0.79703051	0.12789671
0.62935854	0.06861869	0.60356633
0.63843363	0.5656272	0.61489677
0.13245831	0.32348697	0.615407
0.12886865	0.81384909	0.63409246
0.1297722	0.0649148	0.11888217
0.13720192	0.5712848	0.11512624
0.63448272	0.30486923	0.11810718
0.61284394	0.80208391	0.1324026
0.62843549	0.06541109	0.60983989
0.62532245	0.56994762	0.6153252
0.10788257	0.32561246	0.6193939
0.14537057	0.81542861	0.62445538
0.12268834	0.06700732	0.11970096
0.13839461	0.56824452	0.10853085
0.63068214	0.30349606	0.12238846
0.62595362	0.80712464	0.13022728
0.6284899	0.06681906	0.6149426
0.61421815	0.5679524	0.62264959
0.12434657	0.32235086	0.62168603
0.15000743	0.81035892	0.61818733
0.11954563	0.06584485	0.11684202
0.12926701	0.55816749	0.11163332
0.63185282	0.30685756	0.12795897
0.6376781	0.80811133	0.12373843
0.63770899	0.07122216	0.61846448
0.61783232	0.56464957	0.62969023
0.14939352	0.31696455	0.62586903
0.13954082	0.80950176	0.61668905
0.1214589	0.06143707	0.11256187
0.11966493	0.55068817	0.11928554
0.63359186	0.30645006	0.13064624
0.62150785	0.80340977	0.1198165
0.64654928	0.07271924	0.61738399
0.62954877	0.56607072	0.6259423
0.14683724	0.31655674	0.63107057
0.13426751	0.8180559	0.61849846
0.1247784	0.05845473	0.11562394
0.12443916	0.55169693	0.12206374
0.62636718	0.30025103	0.12702286
0.60319904	0.79990847	0.12092962
0.64170354	0.06764125	0.61483812
0.62905541	0.57046454	0.61409991
0.13028108	0.32120998	0.63356403
0.13493597	0.82612749	0.61798398
0.12056437	0.05953438	0.12233959
0.13546672	0.5550795	0.11901313
0.61801663	0.29757274	0.12095995
0.60396141	0.80476382	0.12125811
0.63176731	0.06298045	0.61783054
0.61877814	0.57087828	0.6067169
0.12769496	0.32471577	0.62962973
0.1281192	0.82538935	0.61348763
0.11584519	0.05963108	0.12184458
0.13582335	0.55426076	0.11828338
0.61848819	0.30507754	0.11504543
0.61375809	0.81017652	0.11787694
0.63023239	0.06445918	0.62815459
0.62395546	0.56796217	0.61090353
0.13409508	0.32174304	0.62572021
0.11296355	0.82002302	0.61087882
0.12175379	0.05621669	0.11925386
0.12546864	0.54986428	0.12582575
0.62550157	0.31337496	0.1133111
0.61975796	0.81137374	0.11543606
0.63648305	0.07013928	0.6316224
0.64114191	0.56591851	0.62172267
0.13344254	0.3199483	0.63130897
0.10291957	0.81938474	0.61452352
0.13542305	0.05690806	0.11760163
0.11788269	0.54842845	0.13338321
0.6309663	0.31310032	0.11867099
0.61682943	0.80989689	0.12161291
0.63694153	0.07383894	0.62359962
0.64414377	0.5663617	0.62568312
0.12221292	0.32423639	0.63817424
0.10556184	0.82602451	0.61937172
0.13577365	0.06249302	0.12112485
0.11645275	0.55288735	0.13199021
0.63436777	0.30763551	0.12266273
0.61450384	0.80968364	0.13421356
0.62584518	0.07169588	0.62081247
0.63627879	0.56582653	0.61957595
0.1145493	0.32690476	0.63726086
0.1128143	0.82817203	0.62055912
0.12442647	0.0638369	0.12730172
0.11850008	0.55817291	0.12836866
0.63391309	0.30514399	0.11676737
0.61576018	0.81151175	0.13626808
0.62124984	0.06460781	0.63141903
0.63204269	0.56262015	0.62200864
0.1214686	0.3206664	0.63592701
0.11268742	0.82183813	0.612521
0.12501613	0.05991112	0.12963073
0.11694873	0.55849354	0.12768007
0.62510443	0.30779802	0.1077112
0.61990206	0.81179505	0.13336206
0.63003363	0.06260777	0.63378655
0.63416186	0.56111664	0.63636477
0.14100584	0.31853655	0.63781456
0.10274945	0.81969179	0.6037572
0.13057802	0.05938111	0.13277747
0.11429016	0.55764259	0.13045274
0.6140413	0.3100703	0.10806065
0.62038289	0.80742681	0.13229895
0.63681923	0.06989037	0.62548583
0.63857607	0.56423497	0.63680792
0.15527927	0.32518212	0.64313067
0.10022639	0.82482155	0.60326486
0.12665321	0.06288547	0.13456024
0.11608784	0.56232405	0.13637914
0.61155153	0.30729676	0.11759513
0.61280545	0.80246161	0.1316473
0.6339901	0.07113028	0.6163175
0.64218638	0.56887221	0.61953946
0.15122009	0.32798772	0.64622155
0.11583102	0.83018444	0.61089753
0.11445628	0.0645102	0.13479261
0.12819185	0.56953993	0.1393699
0.61200851	0.30387001	0.1189179
0.60678791	0.80584625	0.12754792
0.62353619	0.06597997	0.61497313
0.6434045	0.57086743	0.61180539
0.13940841	0.32248978	0.64045643
0.12378578	0.83105951	0.62302561
0.11276177	0.06215666	0.13174317
0.13834573	0.57127261	0.13839565
0.61428893	0.30636311	0.11539719
0.60983845	0.81152319	0.12445285
0.61695453	0.06206545	0.61832112
0.63917411	0.5689847	0.62166617
0.13689238	0.31840812	0.62922398
0.11257783	0.82927445	0.63010947
0.12217738	0.05852599	0.12440312
0.13612684	0.5690693	0.13826701
0.62224156	0.31035264	0.12673982
0.62082166	0.80897325	0.1251807
0.62136692	0.06221429	0.62099514
0.63219505	0.56464521	0.62920117
0.13977025	0.32121756	0.62889667
0.10051088	0.82871943	0.63176139
0.12663998	0.06108729	0.11799744
0.12178978	0.5695869	0.14358824
0.63059532	0.30952804	0.13988495
0.63168769	0.80518178	0.12484765
0.63034593	0.0633642	0.62280861
0.62393721	0.56110697	0.62716396
0.13696275	0.3263803	0.63597444
0.10837953	0.82882386	0.6353533
0.11946973	0.06905819	0.11734241
0.11437801	0.57329188	0.14707815
0.63431579	0.30570596	0.13443542
0.63199044	0.80429748	0.12298529
0.62971225	0.06171598	0.62164088
0.61706143	0.56141239	0.63123572
0.13164055	0.32450011	0.63833693
0.12933678	0.82433857	0.64570779
0.11252686	0.0707148	0.12309558
0.13046789	0.57569446	0.13921443
0.63574876	0.30262786	0.12340541
0.62385799	0.80389887	0.12350856
0.62662485	0.05822524	0.61813184
0.61473858	0.5644339	0.64800461
0.12824055	0.31655986	0.63247948
0.13332299	0.81751963	0.65599758
0.1116884	0.0671819	0.13309347
0.13617598	0.57450783	0.1238511
0.63509031	0.30087824	0.12572562
0.62592433	0.80207753	0.12247247
0.6281103	0.0588385	0.61472307
0.61274175	0.56717986	0.66264769
0.12719565	0.31295167	0.62226922
0.12547188	0.81416949	0.66043488
0.11460032	0.06629715	0.1404432
0.12102876	0.57133855	0.12422455
0.6319153	0.29965688	0.13722183
0.64161643	0.80142341	0.11585343
0.62983284	0.06454879	0.61546368
0.60750856	0.56848644	0.65672821
0.12714006	0.31842163	0.61588608
0.13832949	0.81723462	0.65281711
0.12116276	0.06923212	0.14130889
0.11121174	0.5694531	0.13664203
0.62679122	0.30038986	0.14420088
0.65669952	0.80688064	0.10924724
0.62635748	0.06750614	0.61830031
0.61424272	0.5685346	0.6350717
0.12924526	0.32490906	0.61942891
0.15499179	0.82170821	0.63914279
0.13079547	0.07276523	0.13668534
0.12354289	0.57107999	0.14419185
0.61926084	0.30482043	0.13901879
0.65177708	0.81384915	0.11279476
0.62213389	0.06304689	0.61894832
0.62578298	0.56588734	0.62023415
0.12594992	0.32664709	0.62193264
0.15784249	0.82090176	0.63381973
0.13814604	0.07313142	0.12806911
0.13913804	0.57139047	0.14011548
0.61269367	0.3105345	0.12935271
0.63486471	0.81418627	0.12743262
0.6225904	0.05887059	0.62038813
0.62277668	0.56145188	0.62866649
0.1122057	0.32432256	0.61550935
0.14717334	0.8179496	0.63516151
0.13725157	0.06972579	0.11907558
0.13245404	0.5680698	0.1311433
0.61385205	0.31459493	0.12647009
0.62999452	0.81135456	0.13523219
0.6191503	0.05580091	0.62183075
0.61253286	0.5577433	0.64587063
0.10429314	0.31898046	0.61605443
0.13359432	0.81998779	0.63538193
0.13125383	0.06492388	0.11371083
0.12724002	0.56557378	0.12501238
0.62759519	0.31770257	0.13070715
0.64525805	0.81187206	0.12861708
0.61502259	0.05150586	0.61913597
0.61567107	0.55677511	0.64388472
0.11030767	0.31241369	0.62728967
0.13222131	0.82150042	0.63401988
0.12766809	0.06386102	0.11521325
0.13796694	0.56466691	0.12587502
0.64003594	0.31895001	0.12850262
0.65321973	0.81569046	0.120221
0.61910341	0.04842966	0.62398062
0.62786293	0.55754076	0.62857698
0.1225202	0.31062927	0.6364507
0.14828299	0.81373947	0.6319561
0.1275266	0.06662561	0.12075016
0.14756105	0.56196407	0.12948807
0.63863062	0.31749357	0.12179507
0.63947926	0.81820874	0.12485721
0.62702784	0.04894176	0.63731533
0.6384924	0.55722187	0.62172583
0.12245313	0.31309228	0.63052697
0.15744298	0.80124592	0.63179918
0.12787941	0.06736292	0.12701586
0.1470658	0.55975006	0.11687651
0.62643789	0.31691914	0.11999195
0.62952146	0.81544215	0.13656053
0.62523782	0.0546679	0.64635177
0.64143087	0.55811953	0.62542068
0.10884193	0.31334473	0.61261529
0.14526452	0.7957177	0.63564065
0.12887302	0.06317521	0.13378468
0.14139452	0.55805891	0.10079645
0.61398108	0.31709373	0.12828301
0.63869341	0.80959727	0.13638773
0.61783651	0.06376498	0.64282021
0.63748397	0.56134662	0.61781914
0.09893675	0.3117131	0.6001709
0.11947189	0.80268596	0.63153938
0.13182354	0.05788257	0.13663814
0.13716588	0.55632258	0.11284299
0.61242254	0.31851073	0.13601092
0.65084296	0.81063238	0.12483151
0.61482931	0.07004796	0.63162171
0.63651673	0.55984281	0.59941514
0.10591501	0.31145497	0.60586981
0.10717342	0.8114926	0.62299504
0.13611867	0.05498667	0.13358535
0.12788846	0.55588926	0.13523821
0.61468738	0.31703183	0.1369561
0.64602893	0.81776706	0.12100082
0.61697662	0.06639626	0.630546
0.64114431	0.55391954	0.59119274
0.12030532	0.31193483	0.62189681
0.11307366	0.80883362	0.62077093
0.13614559	0.05499526	0.13080428
0.11274518	0.55591625	0.13447714
0.61296946	0.31368698	0.13397849
0.62342854	0.81780167	0.12968068
0.62084331	0.05637604	0.64063777
0.64552435	0.55169511	0.59903553
0.11927549	0.31003213	0.62519252
0.12242147	0.80196641	0.6158475
0.13291092	0.05676621	0.13490346
0.11422288	0.55597909	0.11603301
0.60878348	0.30954466	0.13280171
0.60844001	0.80615412	0.13383892
0.61828193	0.05605294	0.64457363
0.64178872	0.55510706	0.60995062
0.1104373	0.30486053	0.61599998
0.11432392	0.80220309	0.6109799
0.13024148	0.05509687	0.14071304
0.13690027	0.55693055	0.10537491
0.61263641	0.30517802	0.1330444
0.61888018	0.7965377	0.12230959
0.60927132	0.06302648	0.63493221
0.63113884	0.55711143	0.61641937
0.11101218	0.30028583	0.61318648
0.10417472	0.81034102	0.60783584
0.13056723	0.05172955	0.13935413
0.1493821	0.55757039	0.11737851
0.61999826	0.30216081	0.12923873
0.62908245	0.79966712	0.10568274
0.60786263	0.06084511	0.62668276
0.62565456	0.55712887	0.62028984
0.12910548	0.3002168	0.62669891
0.1085406	0.81825158	0.60739558
0.13238985	0.05269178	0.13190432
0.13419475	0.55698704	0.12673206
0.62988342	0.2975219	0.1202361
0.61749716	0.80388197	0.10562441
0.61842706	0.05453987	0.63324061
0.62850005	0.55950917	0.62575958
0.14790008	0.30455312	0.63184705
0.1196983	0.81826124	0.60928774
0.12938022	0.0567576	0.12993669
0.11893436	0.55877921	0.1154161
0.63229052	0.2916052	0.11308324
0.60363375	0.80252882	0.12153797
0.62064183	0.05997378	0.64396843
0.62339717	0.56624056	0.63116205
0.14106035	0.30822411	0.62541495
0.12943534	0.81272516	0.61397792
0.11996967	0.05843232	0.1304648
0.12882987	0.5635164	0.10426224
0.62715144	0.29388459	0.11369811
0.6089148	0.79744684	0.12856382
0.61153983	0.07206022	0.63691208
0.60950277	0.57329995	0.62549765
0.11474229	0.30921782	0.62290219
0.13161274	0.81116881	0.61547559
0.11986423	0.05612456	0.12587824
0.13991751	0.5681578	0.11081221
0.61973819	0.30125134	0.11882039
0.627614	0.79623706	0.11659933
0.60685208	0.06891488	0.61787712
0.60036818	0.57636563	0.61377038
0.11019143	0.31139654	0.63094473
0.12699876	0.82026619	0.61034389
0.12351386	0.05491646	0.11638661
0.11988553	0.56696803	0.12089876
0.62146448	0.30078379	0.11716997
0.63886078	0.80013111	0.10941384
0.61673084	0.05860904	0.60893188
0.59736615	0.57353246	0.61686863
0.12631859	0.31673606	0.63655916
0.12147534	0.82333828	0.60721887
0.12249974	0.0573996	0.10795437
0.10051735	0.55849522	0.12431946
0.62600872	0.29701988	0.1115197
0.63161098	0.80409783	0.11628913
0.63379771	0.05611383	0.61970654
0.59912751	0.56465986	0.62763536
0.13052303	0.32211448	0.63575741
0.11827824	0.81846252	0.61260262
0.11473574	0.06044435	0.10429353
0.10861115	0.5498266	0.12262802
0.62770828	0.29544688	0.11377456
0.62514817	0.80252501	0.12159273
0.63653223	0.06242287	0.62815232
0.60438387	0.55950427	0.63206792
0.11589046	0.32537664	0.63415114
0.11514181	0.81778442	0.61983246
0.10695091	0.05940377	0.10504855
0.12245633	0.54804915	0.12679053
0.62738913	0.29857367	0.11380539
0.63279571	0.7980088	0.11102741
0.62439107	0.06701521	0.61841588
0.60868121	0.56149881	0.62408978
0.09846581	0.32524799	0.6350344
0.11202697	0.8194999	0.62279248
0.10520786	0.05384013	0.10524579
0.1211819	0.5535278	0.13419371
0.62728852	0.30346504	0.11361487
0.63898289	0.79572897	0.09910444
0.61590981	0.06428422	0.60347403
0.60948112	0.56257908	0.61447328
0.09384046	0.32160926	0.63489036
0.11517303	0.82045935	0.61850266
0.11562202	0.05157139	0.09653454
0.10934771	0.55639881	0.1375333
0.6247551	0.30657619	0.11718831
0.62574334	0.80166206	0.10570159
0.62172785	0.06068138	0.6047562
0.61006235	0.56111924	0.61274352
0.10177695	0.31979475	0.62924819
0.12535587	0.81981169	0.61733115
0.12425713	0.05633342	0.08829158
0.10361484	0.55271286	0.13016414
0.61868317	0.30717836	0.11932343
0.61241291	0.81340718	0.12721458
0.62951471	0.06490233	0.61656756
0.61476271	0.56231701	0.61452079
0.10600566	0.32381682	0.61898122
0.1342292	0.81884279	0.62575759
0.12789921	0.05906759	0.09137304
0.11570316	0.55084805	0.11552256
0.61112709	0.30684469	0.11900246
0.61179173	0.81042181	0.13551783
0.62202621	0.07175143	0.62117066
0.62277599	0.56513153	0.61555316
0.10628272	0.3276036	0.61254839
0.1313154	0.81698597	0.63771265
0.12318254	0.05650362	0.10411289
0.13217055	0.55617872	0.10327473
0.60812705	0.30710494	0.11441264
0.61848855	0.798984	0.12117059
0.60347058	0.07124548	0.61683446
0.62769441	0.56671553	0.61369268
0.11441251	0.31950803	0.61343207
0.12465269	0.81506382	0.64058979
0.11461839	0.05725767	0.11777796
0.13037796	0.5620202	0.10333579
0.61149628	0.30667049	0.10807052
0.61848214	0.79871794	0.10768863
0.60228437	0.06338281	0.61254846
0.62330134	0.56529596	0.6104289
0.12121773	0.31442823	0.61317334
0.12660856	0.81280867	0.63050584
0.11627137	0.06450242	0.12078914
0.11793742	0.56046139	0.11302773
0.61812408	0.30184233	0.11000669
0.61336641	0.80614236	0.11940124
0.62030885	0.06058154	0.61413314
0.61467402	0.56118637	0.61315079
0.12082313	0.32037417	0.60611335
0.13025078	0.81096247	0.61877951
0.12146902	0.06750509	0.11471528
0.11219949	0.55005846	0.11597286
0.62223009	0.29736429	0.12049663
0.61130822	0.80590005	0.14295286
0.62556053	0.06431875	0.62403135
0.61196806	0.55875785	0.62282372
0.11620183	0.32052323	0.60253028
0.12561452	0.81125001	0.61874827
0.12299919	0.0645514	0.11338002
0.11297106	0.54805021	0.11085094
0.6239155	0.2998214	0.12676727
0.6120404	0.79573418	0.15076923
0.60986479	0.06586594	0.63695138
0.61490387	0.55980217	0.63150316
0.11629436	0.31622125	0.60822831
0.11682364	0.81444311	0.62282242
0.1270144	0.06228137	0.12760158
0.12085019	0.56083279	0.1178538
0.62809672	0.3062957	0.12386202
0.6109781	0.78909926	0.14041194
0.60371425	0.06041979	0.63832848
0.61590005	0.56020789	0.62908452
0.12530319	0.31528261	0.61534153
0.1166321	0.81833091	0.61685529
0.13705901	0.06226326	0.13581902
0.13296457	0.57308494	0.1257035
0.63328388	0.3053915	0.11974039
0.60479082	0.79681244	0.13190607
0.61786594	0.05404414	0.62368732
0.61581161	0.56163757	0.62453506
0.13566289	0.31700337	0.61440743
0.12089464	0.81986196	0.60046674
0.14813592	0.06339327	0.12784141
0.13090883	0.57242854	0.11772784
0.63322626	0.29986921	0.11855622
0.5998817	0.80701975	0.1387387
0.62902355	0.0535405	0.60437528
0.6171184	0.56469761	0.62920636
0.13414311	0.31731537	0.60921035
0.11672848	0.81900316	0.58738222
0.14712438	0.06424236	0.12651051
0.12057066	0.56388818	0.1106088
0.62875278	0.29788987	0.12607151
0.60277969	0.80390815	0.14475386
0.62292141	0.05688015	0.59708613
0.62524896	0.56364705	0.63711663
0.12085195	0.31606943	0.60466356
0.10772722	0.81907486	0.58941151
0.13264351	0.06467872	0.13251702
0.12023008	0.56189654	0.11152315
0.62672801	0.30212327	0.13174652
0.61039618	0.79701045	0.13488015
0.61938412	0.0578756	0.61126041
0.63996877	0.55847431	0.63965396
0.12136019	0.31621522	0.60820243
0.10670287	0.8243862	0.60585605
0.11984936	0.06309138	0.1342642
0.12271776	0.56835292	0.12004076
0.63106661	0.30721041	0.12921678
0.61416807	0.80013113	0.12017797
0.63101949	0.05557438	0.62642946
0.64785752	0.55682035	0.63898316
0.13006174	0.31733014	0.60765954
0.11047467	0.82516395	0.62395704
0.12114117	0.06067433	0.12674552
0.12833107	0.56714941	0.12641236
0.64002066	0.30457881	0.12485318
0.60968067	0.81089411	0.11216633
0.64251588	0.05421368	0.61883881
0.63595195	0.55921189	0.63846682
0.12657667	0.31841073	0.6079759
0.10727464	0.81683818	0.63125116
0.12476076	0.05972346	0.11941918
0.13063296	0.55766961	0.11982201
0.64291798	0.29732605	0.12386124
0.6081848	0.81688922	0.11278353
0.63743174	0.0546856	0.61447377
0.62884704	0.55939816	0.63002711
0.12478383	0.31974137	0.6203563
0.09885089	0.81639417	0.62304369
0.11902537	0.06058077	0.11869968
0.11792602	0.55370414	0.11071981
0.63453727	0.30056998	0.12587204
0.61773199	0.81266618	0.11429432
0.62841279	0.05497556	0.63010261
0.63424074	0.55393488	0.61907709
0.13715864	0.31980765	0.62776407
0.10019316	0.82169475	0.61367953
0.11150108	0.06020037	0.1216321
0.09974547	0.56031246	0.1121573
0.6230588	0.31107382	0.12601787
0.62833567	0.8079228	0.11067398
0.63420628	0.05384414	0.64575737
0.63531123	0.54905751	0.61413323
0.15181011	0.31812016	0.62504559
0.1106212	0.82447899	0.6198301
0.11527376	0.05659444	0.12370287
0.1124198	0.57046145	0.11533454
0.62267915	0.31498689	0.1173834
0.63043727	0.81291068	0.10688249
0.64519437	0.05662358	0.63706326
0.62740375	0.55106393	0.6191249
0.15415987	0.31740572	0.62280852
0.11525607	0.81992311	0.63016503
0.12104775	0.05849011	0.12089838
0.12557758	0.57345906	0.12075234
0.63166675	0.30699241	0.10703596
0.62323017	0.82255427	0.11093229
0.64740252	0.0630655	0.6179309
0.62348964	0.55734778	0.62839146
0.14517058	0.31866819	0.62322746
0.11367655	0.81207782	0.63113292
0.11977365	0.06762736	0.11610551
0.118922	0.56620142	0.117606
0.63376949	0.29916918	0.10948736
0.61895665	0.82160693	0.1189541
0.63862886	0.06250635	0.61113294
0.62668355	0.55987458	0.62688139
0.13622796	0.3198865	0.6217103
0.11819955	0.80858105	0.62987729
0.11828506	0.0707129	0.11755423
0.10611223	0.56080784	0.1162009
0.62746317	0.30311444	0.11250784
0.62047517	0.81108628	0.11898382
0.62802652	0.06043146	0.61685483
0.63226929	0.55590065	0.61982367
0.13446802	0.31899571	0.62118574
0.12467784	0.81301206	0.63259225
0.12242423	0.06622087	0.12553734
0.11419933	0.57082583	0.11910672
0.62198462	0.31480418	0.10869925
0.6177509	0.80761981	0.10896304
0.62746326	0.06547488	0.62130866
0.62979339	0.55450949	0.61552697
0.13805826	0.3163611	0.62148083
0.12821261	0.81803834	0.63603708
0.13009979	0.06173619	0.1289711
0.14011148	0.57873631	0.1210436
0.62010626	0.31693052	0.10331121
0.61158972	0.81279429	0.10593412
0.63436881	0.0705405	0.61846132
0.61986303	0.55693382	0.61155509
0.13922909	0.31561348	0.62233256
0.12996331	0.81914948	0.63747524
0.13886792	0.06100061	0.12369536
0.15246382	0.57397285	0.11892609
0.62258312	0.30678801	0.10433543
0.60837802	0.81394824	0.11718075
0.63355209	0.06660957	0.61511336
0.61291389	0.56021643	0.60313171
0.13560475	0.31705061	0.62217687
0.13293698	0.81753551	0.63734604
0.14557442	0.06336638	0.12400442
0.13679436	0.56643193	0.12175346
0.62850575	0.30085916	0.10964007
0.61132715	0.80767862	0.12490779
0.62395393	0.05942632	0.61648065
0.62084798	0.56190348	0.59787601
0.13486825	0.31732904	0.62286939
0.13815716	0.81687494	0.63719557
0.14768701	0.06668468	0.12928031
0.12153304	0.56261173	0.12554967
0.62922981	0.30851096	0.11280882
0.618051	0.80148068	0.12211811
0.61775865	0.0604723	0.6219067
0.63561552	0.56373678	0.60010945
0.13996943	0.31775227	0.62741466
0.14140389	0.81929357	0.63796793
0.14280338	0.06934639	0.12807081
0.12611464	0.56335391	0.11935405
0.6245312	0.31806019	0.1173267
0.62596613	0.80097634	0.11707559
0.62251106	0.06930898	0.62579418
0.63877838	0.56500625	0.60514509
0.14316029	0.31878563	0.63289218
0.13817003	0.82083268	0.63967073
0.13294417	0.07122118	0.12753702
0.13974351	0.56876443	0.11770799
0.62565091	0.31808409	0.12107742
0.63156241	0.8036001	0.11733626
0.62931374	0.07304536	0.62310675
0.64008364	0.56556191	0.60722753
0.14056376	0.31800036	0.63217179
0.13675992	0.81914965	0.64103687
0.12701237	0.07266583	0.13234436
0.14877614	0.56915642	0.12210264
0.63308182	0.30924861	0.12446274
0.63304237	0.80659189	0.11928731
0.62481303	0.06500474	0.62377149
0.64244563	0.56793931	0.60605038
0.13044636	0.31725805	0.63090714
0.14148792	0.81723321	0.6388748
0.12234668	0.07250775	0.13265277
0.13630302	0.5597785	0.12771953
0.63742887	0.30652993	0.12791604
0.63501949	0.80973031	0.11458159
0.62005708	0.05644307	0.63448589
0.6411204	0.57075861	0.60791489
0.11605236	0.31763078	0.63493292
0.14336323	0.81505475	0.63171739
0.11690108	0.06984002	0.12946209
0.11385382	0.55344159	0.12310096
0.63311156	0.31300371	0.13139107
0.63685527	0.81071521	0.1070554
0.6267788	0.06035152	0.64335425
0.63986192	0.56886037	0.61604672
0.10567967	0.3161837	0.6360247
0.13760349	0.8201954	0.62434754
0.11165944	0.06553809	0.12943138
0.11245235	0.55901138	0.11363325
0.62551582	0.31578075	0.13405591
0.63617858	0.80816287	0.10581981
0.62863507	0.06913397	0.63894725
0.64106266	0.56510899	0.62610019
0.10785394	0.31292073	0.63307172
0.12950505	0.82966382	0.62482924
0.10690702	0.06317489	0.13418809
0.13638267	0.5658265	0.11604671
0.62901884	0.30841968	0.1360754
0.63477861	0.80595152	0.10970175
0.62215817	0.07341896	0.63148265
0.64111651	0.56565913	0.63306566
0.11882158	0.31260599	0.63172734
0.1272759	0.82802402	0.63430989
0.10651362	0.06562708	0.13874991
0.13883285	0.5648265	0.13171672
0.64061512	0.3048849	0.13468312
0.63504007	0.80866526	0.11431816
0.62412971	0.06915292	0.63296569
0.63751508	0.5692799	0.63250806
0.12278336	0.31740638	0.63233118
0.1327985	0.82058748	0.63734288
0.11233831	0.06862904	0.13681682
0.1219382	0.55485983	0.1382892
0.63993776	0.31079353	0.13401748
0.63365909	0.81543883	0.12116583
0.63500003	0.06049047	0.63280755
0.63442802	0.57055599	0.62574275
0.12187038	0.32173319	0.62964923
0.13746319	0.81682107	0.62668549
0.12323293	0.06511933	0.1312046
0.11539336	0.54947862	0.13455077
0.62118556	0.31514002	0.1400201
0.6307404	0.81869085	0.13096421
0.64045331	0.06051091	0.63343499
0.63609608	0.56864697	0.61821446
0.12783029	0.31865738	0.62673693
0.13202522	0.8191569	0.61925231
0.13007208	0.06025505	0.12832262
0.13134277	0.55725674	0.1311453
0.60482024	0.31155324	0.14692983
0.63029268	0.81574558	0.13955687
0.63236857	0.07081013	0.63284762
0.63942481	0.56604842	0.62040156
0.13561787	0.31661197	0.6257849
0.12125441	0.82013661	0.62419499
0.13755024	0.05978944	0.13511757
0.14774911	0.57063942	0.13444871
0.6016709	0.30650891	0.15141618
0.6326824	0.81477189	0.13870859
0.62382683	0.07459423	0.63012977
0.63366497	0.56518959	0.62769141
0.13360415	0.32092545	0.62764586
0.12030431	0.81351355	0.63102785
0.13909306	0.06225506	0.14414692
0.14141167	0.57673684	0.13834729
0.6179618	0.30809781	0.15259461
0.6355364	0.81998683	0.12911922
0.62557195	0.06436937	0.62869637
0.62101465	0.56607374	0.63160226
0.12404897	0.32404431	0.63013525
0.13091864	0.80491512	0.62692653
0.13474412	0.06113009	0.14204035
0.1223106	0.57076012	0.14059375
0.64114701	0.31618777	0.14506332
0.63771707	0.81839561	0.12078898
0.63245122	0.05707684	0.62753567
0.61696258	0.56510653	0.63374812
0.12176733	0.32078271	0.63052234
0.12941578	0.80402567	0.61817264
0.13290081	0.05824567	0.12959403
0.12020244	0.56367895	0.13791137
0.64603905	0.32037093	0.13344314
0.63788934	0.8078546	0.12183279
0.62503876	0.06504424	0.62782155
0.62424874	0.56098015	0.64315481
0.12972725	0.31558116	0.62738297
0.11429708	0.81174344	0.61884406
0.13565188	0.05888901	0.12456053
0.13591264	0.56577547	0.1332851
0.63182461	0.31309328	0.12414011
0.6350285	0.80287407	0.12688708
0.60903583	0.07135078	0.62976983
0.62771731	0.5578146	0.64874371
0.13350159	0.31526298	0.62751626
0.11473983	0.81847822	0.6274653
0.13523456	0.06349315	0.1303251
0.13790996	0.57443941	0.13411707
0.6196923	0.30408971	0.121726
0.63048419	0.80696815	0.12722458
0.60284708	0.06341658	0.62413025
0.62440432	0.55951647	0.64218527
0.129739	0.32109488	0.63420202
0.13514748	0.81866629	0.63123343
0.12395078	0.06520691	0.1392714
0.11848933	0.5740245	0.14177056
0.61845757	0.30616551	0.12070195
0.62848754	0.81143908	0.12536325
0.61354211	0.0520175	0.61603399
0.62494478	0.56399485	0.63530596
0.12108375	0.32311543	0.64400385
0.14745263	0.81577759	0.62955193
0.11287152	0.06438394	0.13977577
0.11407314	0.56695759	0.14324476
0.62331696	0.31190183	0.1181719
0.63320451	0.81098013	0.1297672
0.62077992	0.051448	0.61283829
0.63274966	0.56489728	0.6323234
0.11403254	0.31884116	0.64819109
0.14129721	0.81842028	0.62933943
0.11779362	0.06553496	0.13252679
0.12549681	0.56289875	0.13311789
0.62354523	0.30992236	0.11806287
0.63946064	0.80717877	0.13783686
0.61699012	0.05949311	0.61720747
0.63605497	0.56223746	0.6318895
0.1159751	0.31476364	0.64414555
0.13033282	0.82603244	0.63434394
0.12346137	0.0678857	0.12542999
0.13077578	0.56698945	0.12726206
0.61723518	0.30336068	0.11561113
0.63893733	0.80653563	0.1389576
0.60983604	0.06528566	0.61224114
0.62610422	0.5606631	0.63019585
0.12540107	0.31806379	0.64042468
0.13068188	0.83058601	0.64117628
0.11556564	0.0687388	0.12649579
0.12927008	0.57045619	0.1411244
0.61801112	0.30010792	0.10656904
0.63288538	0.80948039	0.13154365
0.61102628	0.06026866	0.60630297
0.61782109	0.56135633	0.62846842
0.12845998	0.32370812	0.64552741
0.13949801	0.82530177	0.64239842
0.10170769	0.06940326	0.13279029
0.12550166	0.56761384	0.15421937
0.62186225	0.30197213	0.10463143
0.62893498	0.81011499	0.13144871
0.62173443	0.05123433	0.60966095
0.61634391	0.56537284	0.62662899
0.12099889	0.32366862	0.64854439
0.13708306	0.81758383	0.63609838
0.09838691	0.07175421	0.12967679
0.12497836	0.56103745	0.14467072
0.61979903	0.30230837	0.10750906
0.62414163	0.80571986	0.14024795
0.6269473	0.05172292	0.6136367
0.6178417	0.56525597	0.62674313
0.11425419	0.31955406	0.63854762
0.11914078	0.81852854	0.62735776
0.10784235	0.07383258	0.11869206
0.12840979	0.55724752	0.1278053
0.6133319	0.29816441	0.10393774
0.61814998	0.79929199	0.13892627
0.61842222	0.06387455	0.61044814
0.61527028	0.56026843	0.63067323
0.1154551	0.31627211	0.63403248
0.10519601	0.82564245	0.62902998
0.11361972	0.07422155	0.1126663
0.13292157	0.56043357	0.12647402
0.60990714	0.29623452	0.09845955
0.62113368	0.79563933	0.1259785
0.60685477	0.07083641	0.60844856
0.6098401	0.55779227	0.6276407
0.11207333	0.31691958	0.64233412
0.10938194	0.82557685	0.63707469
0.1037649	0.07158978	0.12143841
0.13323129	0.56475166	0.13596367
0.61394514	0.30189268	0.1016721
0.62183254	0.79877412	0.11749695
0.611099	0.06465918	0.60843843
0.60950805	0.56040202	0.6199703
0.10030579	0.32049863	0.64575224
0.12674814	0.81724947	0.63248063
0.09922811	0.06410923	0.13304865
0.13155939	0.56541177	0.14362381
0.62186398	0.30914316	0.11235405
0.61103022	0.80356447	0.11809676
0.62200222	0.05483756	0.60696436
0.61725447	0.56327234	0.61824165
0.09319862	0.32248704	0.63398067
0.13467255	0.81337437	0.61690124
0.11366252	0.05797413	0.13081598
0.13426534	0.56082245	0.13782579
0.61918119	0.30832681	0.11854875
0.60223901	0.7977245	0.12026901
0.6259687	0.05481327	0.61015966
0.62060306	0.56207947	0.62383164
0.10107705	0.3203188	0.61774071
0.11868138	0.81687221	0.60693582
0.13142951	0.05854144	0.11743636
0.134613	0.55871252	0.12544782
0.61165061	0.30481417	0.11976983
0.60790384	0.79333218	0.11844559
0.61653583	0.06354232	0.61269579
0.61183011	0.55643581	0.6271757
0.11422336	0.31933844	0.61029559
0.10909677	0.81921056	0.61394448
0.14638673	0.06301413	0.11028715
0.12542255	0.56077664	0.12204487
0.61403159	0.3053256	0.11705588
0.62183621	0.79803664	0.1169822
0.61006886	0.06672327	0.61520879
0.59750339	0.55381581	0.62434465
0.11518394	0.322012	0.61130814
0.12061623	0.81703985	0.62691028
0.14803814	0.06411291	0.11566224
0.11238224	0.56070053	0.12843222
0.61217665	0.30565718	0.1137652
0.63042681	0.80562772	0.12519934
0.61082743	0.06011619	0.61656956
0.59412552	0.55844491	0.61972888
0.10232205	0.32310578	0.61415497
0.13140377	0.81352488	0.62182588
0.14445897	0.05838163	0.11192977
0.10913845	0.55578331	0.12862466
0.60522381	0.30468648	0.11327395
0.62632947	0.80542686	0.13361311
0.61226984	0.05747518	0.62097233
0.59984778	0.56568813	0.62182659
0.09623995	0.32030619	0.61237683
0.12688901	0.81059171	0.60417777
0.14788262	0.05300197	0.1076051
0.11094767	0.55216005	0.11738221
0.59716914	0.30418612	0.12124042
0.62074431	0.8007017	0.12348969
0.61656448	0.06444523	0.62572233
0.60338342	0.56385683	0.6263193
0.10097811	0.31392483	0.60428604
0.11296266	0.81208992	0.60313359
0.14983617	0.0545462	0.11843955
0.10341901	0.55211128	0.10223722
0.59976561	0.30438257	0.12852845
0.62729793	0.80007903	0.11500793
0.61306733	0.07104573	0.62208094
0.60304305	0.56100518	0.62411032
0.0992911	0.30972193	0.59877836
0.10684554	0.81514486	0.61662087
0.13616465	0.05505735	0.11984209
0.09953505	0.55400686	0.10187658
0.61380115	0.3037982	0.12501214
0.63714877	0.80434535	0.1153009
0.60575905	0.07040578	0.60919172
0.60525204	0.56343615	0.61546203
0.09250647	0.31213219	0.60488642
0.11605723	0.81551747	0.62617879
0.11799879	0.04769414	0.10647877
0.10662976	0.55620589	0.11805582
0.62281883	0.30123916	0.11663328
0.64016048	0.80451021	0.12297195
0.60562934	0.06497313	0.60565186
0.61093665	0.56859011	0.60833836
0.0981186	0.31759499	0.61164741
0.12528818	0.81345681	0.62377881
0.11368123	0.04144388	0.10442453
0.11343128	0.55693495	0.12352355
0.61658862	0.29906042	0.1204403
0.64037661	0.80269031	0.13142483
0.6137313	0.05996169	0.6129306
0.61870743	0.56904932	0.61060676
0.10797933	0.31755323	0.60453229
0.12490629	0.815975	0.61899841
0.1275542	0.0438161	0.10869174
0.10964198	0.55594505	0.10327154
0.60343212	0.29933683	0.13387534
0.64440961	0.80234107	0.13240316
0.62078704	0.06052946	0.61931817
0.62377331	0.56572518	0.61748829
0.11119668	0.3125406	0.59889215
0.11240286	0.81967386	0.61780679
0.12945031	0.05255072	0.12090254
0.10311326	0.5544933	0.09366312
0.60311012	0.30067951	0.13881675
0.64101103	0.80409244	0.12785979
0.6188985	0.06307156	0.61491186
0.62015176	0.56466783	0.62345533
0.10501709	0.31185366	0.60378819
0.10378847	0.81856269	0.61863186
0.11890399	0.05871862	0.13115113
0.10355501	0.55183731	0.10504678
0.61654269	0.29922154	0.12531953
0.62986603	0.80503243	0.12826453
0.60746577	0.06270601	0.61169783
0.6104407	0.56503077	0.62626541
0.09677528	0.31624796	0.61147761
0.1099202	0.81616798	0.61991938
0.11892304	0.05540181	0.12904559
0.11007002	0.55069841	0.11299091
0.62556925	0.29709166	0.12122677
0.61826447	0.80395653	0.13068324
0.6000244	0.05768254	0.61770318
0.60703857	0.56439804	0.62696154
0.10242208	0.31891926	0.61380118
0.11559992	0.82050031	0.61914932
0.12802073	0.04949657	0.11828355
0.11548572	0.55295736	0.10354655
0.61927368	0.29732285	0.13375368
0.611042	0.8034876	0.13120524
0.60716208	0.05520407	0.63274714
0.61660062	0.56160145	0.62202798
0.11480315	0.31671711	0.61040794
0.10950132	0.8211211	0.6154086
0.12243013	0.05148183	0.1117558
0.11798606	0.55953776	0.08969952
0.61828538	0.3024723	0.1345013
0.61217075	0.80433873	0.12713417
0.61973142	0.0608247	0.64207614
0.62667676	0.55772675	0.61395203
0.11728895	0.31209299	0.60598821
0.10528242	0.8137763	0.61322849
0.10817953	0.06116888	0.12131653
0.12254239	0.56002068	0.09036599
0.63530686	0.30923834	0.12177554
0.61785655	0.80424797	0.11989523
0.62734529	0.06145459	0.6377077
0.625345	0.55588593	0.60915902
0.11446654	0.31038798	0.60335142
0.11247542	0.81113286	0.6147585
0.10252518	0.06753451	0.13281578
0.12514664	0.55703542	0.10301991
0.64030924	0.3090311	0.11036428
0.61850282	0.80489325	0.11527955
0.62617282	0.05445285	0.63212931
0.62109976	0.55554445	0.61001976
0.1177548	0.31376888	0.60271603
0.11866796	0.81534625	0.62073453
0.11282444	0.06608785	0.12234963
0.11983047	0.55577602	0.10984525
0.63443976	0.30350381	0.10906824
0.61074632	0.80679253	0.1162234
0.62499617	0.05158235	0.63018423
0.62442333	0.55675302	0.61216749
0.1329363	0.31653306	0.60407793
0.1165474	0.81793621	0.62353607
0.12490877	0.06320134	0.11179627
0.11471115	0.55768258	0.10613788
0.63785499	0.30559095	0.11717346
0.60068304	0.80606451	0.11364219
0.63279025	0.05608379	0.63176198
0.63386093	0.55488706	0.61585091
0.14989004	0.3152264	0.59990991
0.11410368	0.81521633	0.62098721
0.12837314	0.06375355	0.126298
0.12197134	0.5587343	0.10349659
0.64604118	0.314351	0.1202066
0.60144807	0.80473162	0.10303726
0.64235628	0.06209036	0.6318713
0.63346208	0.55248539	0.62441109
0.15370323	0.31459902	0.59837629
0.12174832	0.81064673	0.61982403
0.11607132	0.06359911	0.13417556
0.13159047	0.55667203	0.1092502
0.64735023	0.31772067	0.11082705
0.60863782	0.80442343	0.09684272
0.6372966	0.06060799	0.6299987
0.62391845	0.55435629	0.63311909
0.14381753	0.31799575	0.60769664
0.12763692	0.8099624	0.62674607
0.1023645	0.06073513	0.12495524
0.1260415	0.55429962	0.12232359
0.64008125	0.31051129	0.09854929
0.60888414	0.80504234	0.10132275
0.62513629	0.05329101	0.63217369
0.62195968	0.55385973	0.63753434
0.1404183	0.31977402	0.62112329
0.11923388	0.81386714	0.63425056
0.1105263	0.05676061	0.11694752
0.12097078	0.55754752	0.13447676
0.6314454	0.3014695	0.09855231
0.60424879	0.8072593	0.10835291
0.61820438	0.0547422	0.63454831
0.6271414	0.55177012	0.6317255
0.15959309	0.31658079	0.62542253
0.11513694	0.81773154	0.63158735
0.13065166	0.05680397	0.121119
0.13109465	0.56586014	0.12953266
0.62797204	0.30306267	0.11024675
0.61254482	0.80891953	0.10638907
0.62157536	0.06236455	0.6356448
0.62657124	0.55690379	0.61321502
0.17576308	0.3150553	0.62001882
0.12149002	0.81513009	0.62025559
0.14106998	0.06112146	0.12130678
0.13683641	0.57341363	0.11140227
0.63013593	0.30963265	0.12005431
0.6149817	0.80694243	0.10215495
0.63668386	0.06420119	0.635555
0.6248722	0.56493772	0.59986237
0.17517334	0.31996711	0.61633991
0.12678159	0.81102502	0.61903738
0.13358521	0.0658342	0.11146902
0.13086346	0.57884449	0.11362433
0.63061412	0.30973306	0.11771641
0.60412191	0.80302274	0.10545846
0.6474569	0.05898613	0.63029827
0.62698088	0.56972997	0.60158945
0.16356389	0.32396354	0.61911448
0.12095335	0.81346243	0.62710616
0.11904387	0.06927105	0.10112846
0.13228565	0.57595951	0.13162574
0.62766894	0.30407234	0.11877966
0.60569527	0.8030733	0.11765778
0.63933966	0.05553316	0.62226739
0.63289095	0.57015657	0.6094795
0.14777978	0.32013532	0.62946585
0.11368974	0.81913932	0.62844956
0.11513358	0.06909054	0.10510044
0.14314969	0.56592942	0.13838296
0.62297398	0.30387851	0.13107901
0.61789517	0.80993483	0.1294575
0.6302296	0.0591004	0.61609308
0.63499764	0.56623569	0.60643903
0.13556934	0.31421907	0.64073661
0.11603804	0.82043308	0.62414504
0.13325871	0.06364655	0.11706807
0.15190023	0.5632634	0.1365936
0.62683309	0.31183799	0.13913262
0.62538618	0.81614261	0.13089372
0.63145103	0.06432213	0.61710363
0.63379186	0.56275577	0.5951806
0.1322828	0.31597863	0.64633762
0.12487582	0.82106692	0.61963454
0.14434319	0.05959675	0.12601935
0.1488176	0.5687703	0.13881946
0.63624366	0.31627024	0.13254513
0.622993	0.81454171	0.12993162
0.63931084	0.06376782	0.62472656
0.63766263	0.56293451	0.59698851
0.13274333	0.32413738	0.64623857
0.12904108	0.82400056	0.62085398
0.12922413	0.06368802	0.12936253
0.13227241	0.5698531	0.14373334
0.63384598	0.31101781	0.12216549
0.62233047	0.81042433	0.135957
0.6366528	0.05857735	0.62555965
0.64295415	0.56468843	0.60975928
0.12657499	0.32588448	0.64436558
0.12380106	0.82492933	0.6272089
0.11137622	0.06670389	0.13297582
0.11433167	0.5615131	0.14807632
0.62530551	0.30452448	0.11848743
0.62777086	0.8138287	0.13977295
0.62563677	0.05771404	0.62357156
0.6435615	0.56411331	0.60908626
0.11802866	0.3192136	0.6509339
0.11484856	0.82493862	0.62916142
0.11803578	0.06505086	0.14259406
0.11654258	0.5568526	0.14937908
0.62280833	0.30547541	0.12441173
0.63644714	0.81887275	0.13312329
0.62207612	0.06334023	0.62678993
0.64007836	0.56240089	0.60465143
0.12234841	0.3122697	0.65870533
0.11436099	0.82495612	0.62036785
0.14348806	0.0658052	0.15394509
0.12331867	0.56429084	0.14320137
0.62799361	0.31155779	0.13200278
0.64045919	0.81097992	0.126511
0.62606474	0.06775554	0.62678038
0.6406007	0.56442255	0.61700225
0.13557516	0.31242184	0.64857609
0.13041014	0.82207038	0.61326422
0.14479531	0.0704931	0.14962714
0.11885907	0.57133654	0.13397038
0.62881051	0.31426406	0.13112431
0.63781218	0.80396023	0.12750191
0.62999817	0.06445115	0.62363754
0.64574883	0.56683928	0.63611569
0.13454124	0.31697403	0.63528087
0.14438184	0.81858654	0.62304829
0.11852354	0.07311464	0.14018614
0.11163189	0.5655436	0.12864061
0.62580753	0.31023757	0.12435935
0.63091475	0.80883077	0.13288959
0.62492873	0.06039567	0.62089165
0.64699242	0.56600948	0.64052466
0.12079352	0.31565023	0.63611246
0.14447633	0.81558294	0.63357402
0.11548977	0.07310793	0.14388249
0.11787143	0.55717974	0.12630654
0.61890116	0.30538682	0.12581793
0.62767787	0.81415812	0.13394811
0.61438886	0.06228785	0.62292222
0.64470313	0.5627944	0.63665448
0.11283513	0.31038032	0.64432781
0.14300508	0.81454374	0.63043893
0.13337803	0.07241375	0.15315753
0.12846207	0.55985844	0.12749405
0.61394844	0.30431824	0.1264964
0.63584385	0.80975525	0.1338668
0.61100281	0.06673436	0.62719247
0.64303746	0.55999626	0.63784841
0.12119489	0.31415849	0.64622452
0.14541945	0.81739832	0.62330071
0.14253526	0.07067299	0.15142089
0.13224093	0.56913	0.1269969
0.61246942	0.3057653	0.12353724
0.64248851	0.80163325	0.13251321
0.61560011	0.06843144	0.62632423
0.64063773	0.56118769	0.645296
0.13477172	0.32010719	0.63861101
0.14678325	0.8216558	0.62175392
0.13214485	0.06758733	0.13968261
0.13283181	0.56908726	0.12529029
0.61715775	0.30595743	0.12117181
0.6352086	0.80023339	0.12315595
0.61977521	0.06846921	0.61687272
0.63520435	0.565172	0.6465925
0.13165916	0.31955544	0.63244549
0.1437299	0.82155167	0.62379596
0.11885098	0.06295366	0.13329219
0.13369108	0.56070317	0.12930031
0.62316147	0.30386517	0.12221396
0.62612574	0.8039369	0.11167216
0.61735524	0.06990462	0.60911873
0.62977245	0.5685109	0.63836371
0.11723693	0.31694418	0.63242242
0.13932606	0.81808074	0.62363424
0.12517188	0.05855149	0.13442941
0.13637773	0.55363645	0.13213949
0.62285037	0.30188078	0.12528017
0.62807297	0.80709738	0.10765713
0.61341989	0.0713537	0.60843311
0.62862056	0.56725096	0.6281758
0.11584017	0.31824553	0.63174938
0.13696864	0.81839765	0.61442194
0.1454221	0.05647534	0.13069007
0.13922979	0.56235089	0.1290544
0.61924786	0.30494863	0.12764916
0.63576893	0.80617449	0.11345046
0.61811291	0.06834913	0.61170826
0.63125305	0.56509605	0.62365206
0.12217274	0.32421909	0.6243024
0.13855852	0.8232159	0.61346376
0.14914926	0.05754725	0.12068754
0.14087708	0.574063	0.1216918
0.62100009	0.31021154	0.1277174
0.63942769	0.80327816	0.11817188
0.63101182	0.06485569	0.61700269
0.62987774	0.56567017	0.6306313
0.12119698	0.32948615	0.61325128
0.1413214	0.82210888	0.62325216
0.1364824	0.06104617	0.11397233
0.13171348	0.57580217	0.11532119
0.62724005	0.31158044	0.12398641
0.63376236	0.80312886	0.11333063
0.63493306	0.06495964	0.62493832
0.6269826	0.56900058	0.64300182
0.1148063	0.32920511	0.60486585
0.13920211	0.81716325	0.6146586
0.12583948	0.061836	0.11999977
0.11828534	0.56730563	0.11671504
0.62688735	0.30911786	0.12127225
0.62942676	0.80910688	0.11328017
0.63198508	0.06507128	0.63377184
0.62951503	0.56986597	0.64581376
0.11346822	0.3251879	0.60436531
0.13854594	0.82017614	0.60217067
0.12573216	0.05959266	0.12659122
0.12234386	0.55845243	0.12267998
0.61604417	0.30786607	0.12133795
0.6269685	0.81570385	0.1219152
0.63288798	0.06237825	0.62910101
0.6278547	0.5663549	0.62923645
0.12266601	0.32097704	0.61128599
0.13639608	0.82430821	0.60076762
0.13142745	0.06049384	0.121049
0.13015322	0.55564969	0.12506611
0.6200924	0.30960572	0.12120546
0.61972892	0.81458957	0.13087472
0.63906772	0.06189195	0.61723887
0.61934163	0.56058492	0.61207291
0.12997878	0.31810208	0.62150439
0.12705532	0.82163124	0.61700026
0.1361586	0.0620017	0.11635667
0.12328397	0.55748908	0.12100911
0.63294296	0.31052411	0.12246605
0.61356415	0.80639234	0.13073797
0.6448595	0.06386858	0.6200925
0.61013824	0.5603147	0.61484556
0.12447589	0.31715128	0.62797721
0.12320865	0.82133841	0.6365886
0.12684921	0.05995853	0.12250964
0.10922212	0.5635632	0.12082056
0.63062049	0.3087029	0.12863147
0.61085582	0.8046735	0.12811547
0.64550303	0.06242485	0.6311828
0.614084	0.56353586	0.62521313
0.12106027	0.31812678	0.62579524
0.12781631	0.8238209	0.64250403
0.11056391	0.05626633	0.12950583
0.10895596	0.56268415	0.12738331
0.62950075	0.30852931	0.1329026
0.61265333	0.81454911	0.1235832
0.64138964	0.05680421	0.63385291
0.6242781	0.56025678	0.62099776
0.12210296	0.32096164	0.62380562
0.12970484	0.82307618	0.63505594
0.10039622	0.05654571	0.1310428
0.12177996	0.55842376	0.1387142
0.63566808	0.30791332	0.13007726
0.61922387	0.82208578	0.12887543
0.63726127	0.0529727	0.62545142
0.62601845	0.55328009	0.60933948
0.11859321	0.32197177	0.63023735
0.12193281	0.82073571	0.62652679
0.10628386	0.0624324	0.12736646
0.12962254	0.55685407	0.14272593
0.64214924	0.3045796	0.12431544
0.62747195	0.81655486	0.14029661
0.63720749	0.0557914	0.61783739
0.61759281	0.55183434	0.6149859
0.11217999	0.32216671	0.63868206
0.1186627	0.82089637	0.63123599
0.11873323	0.06926427	0.12179457
0.12431978	0.5598393	0.13212624
0.63971054	0.30254152	0.12623633
0.62727162	0.80775188	0.13830293
0.6359401	0.05886811	0.62200093
0.61095472	0.55584727	0.62197422
0.11435765	0.32271638	0.63725554
0.12413933	0.82324826	0.64370598
0.11385236	0.06915948	0.11915381
0.11607006	0.56363522	0.11984781
0.62509463	0.30385182	0.13181804
0.6280543	0.8066715	0.12396445
0.62504528	0.05278341	0.63499219
0.61620024	0.55931922	0.62511388
0.12818374	0.31944144	0.63045644
0.12266416	0.82195052	0.64686059
0.09741717	0.06661376	0.12072351
0.1161168	0.56646308	0.12703163
0.61334576	0.30552271	0.13032663
0.6355162	0.81012741	0.10765812
0.6117063	0.04559148	0.64080783
0.62718454	0.55745902	0.62931427
0.1440837	0.31447677	0.63218478
0.11479487	0.81643198	0.63658983
0.09346849	0.07181776	0.1226786
0.12400851	0.56833707	0.13791301
0.61393685	0.30375279	0.12979828
0.64220552	0.80779684	0.10761275
0.60570803	0.05009025	0.62879904
0.62828355	0.5525201	0.63442561
0.1447174	0.3127585	0.63945582
0.11196233	0.81199697	0.63172264
0.10948327	0.07898105	0.12788621
0.13077838	0.56798973	0.13164582
0.61786803	0.30061059	0.13952433
0.63672018	0.80112999	0.12534705
0.61256227	0.0558685	0.61738351
0.61505626	0.55060357	0.63734006
0.13503578	0.31491793	0.63562991
0.12254293	0.81186796	0.64485177
0.12195768	0.08066391	0.12650204
0.12886609	0.56875501	0.1177152
0.61285438	0.30224504	0.14975178
0.6294946	0.79516949	0.14024564
0.61723646	0.05371361	0.62777114
0.60138051	0.55273626	0.63518993
0.12766313	0.31632991	0.62734028
0.14041852	0.81272334	0.65189878
0.12141107	0.07486178	0.12261671
0.12217058	0.57170635	0.11676439
0.60149378	0.30607089	0.14376655
0.64004942	0.79550425	0.14070573
0.60738736	0.04927407	0.64275993
0.60560392	0.55580142	0.63293389
0.12275564	0.31286273	0.62775387
0.14273215	0.81153986	0.63474287
0.11859794	0.06654511	0.12260159
0.12339341	0.57270706	0.12721124
0.59996773	0.30508217	0.13020113
0.65286767	0.80155191	0.13301923
0.59453397	0.05076381	0.63417487
0.62057903	0.55748984	0.62508116
0.11426396	0.30749685	0.63264363
0.12962928	0.81162032	0.62130982
0.1227262	0.06331203	0.12166976
0.13537136	0.569786	0.12809062
0.61220095	0.29870819	0.1268012
0.65003652	0.80176505	0.12766195
0.59268155	0.05903721	0.6120828
0.62152926	0.55766835	0.63022862
0.09996672	0.30716021	0.63204608
0.1220585	0.81394881	0.61729223
0.12666337	0.06508746	0.11632002
0.14538695	0.56658219	0.11402334
0.61805135	0.2995488	0.13031157
0.63758878	0.79502853	0.12408119
0.6005652	0.06575972	0.61115187
0.60681522	0.55991271	0.64043114
0.09736349	0.31178906	0.625215
0.12886317	0.81451689	0.61565122
0.11915363	0.06488166	0.11088534
0.14196006	0.56645067	0.10533221
0.6159709	0.30426752	0.12584438
0.62948433	0.79071844	0.11775008
0.60567102	0.06337095	0.6326164
0.60470105	0.56375882	0.64189924
0.10654357	0.31537083	0.61493805
0.13025338	0.81373548	0.6175246
0.11930103	0.06104275	0.1140966
0.128783	0.56633397	0.10960037
0.62029155	0.30323801	0.11715117
0.62837359	0.79383994	0.11291313
0.59919528	0.05466384	0.63781905
0.62768305	0.56377902	0.63473552
0.10657704	0.31223933	0.60986878
0.1162958	0.81430648	0.62302621
0.13061798	0.05605904	0.12729441
0.12185959	0.5632131	0.12220514
0.62955118	0.29927604	0.11801786
0.6307076	0.80110926	0.11581043
0.59025635	0.05127326	0.62535283
0.64010322	0.56170709	0.62534952
0.10067653	0.30777081	0.61384768
0.10365804	0.81597994	0.63247921
0.13612925	0.05599366	0.13875663
0.12347895	0.56214988	0.1283064
0.63506917	0.29964956	0.12730641
0.63105164	0.80413926	0.12126664
0.59441992	0.06082528	0.62163266
0.63090251	0.55701628	0.61205001
0.1050913	0.31089874	0.61706476
0.11045184	0.81481693	0.63845316
0.13081322	0.06007839	0.13502341
0.1250085	0.56169808	0.12247119
0.63050319	0.30398311	0.13196634
0.62387732	0.80289973	0.12270773
0.60958422	0.06780632	0.63204245
0.62049003	0.55070615	0.60704477
0.1164281	0.31857284	0.6138761
0.12604332	0.81321903	0.63330286
0.12342847	0.06231643	0.11987124
0.12162756	0.55521995	0.11069757
0.62375066	0.3078265	0.12924213
0.61824169	0.80522426	0.12454334
0.61720307	0.05945722	0.64236365
0.62742203	0.55168144	0.61203604
0.12216824	0.31777338	0.61017834
0.12197291	0.80905991	0.62395411
0.12618448	0.05773775	0.11656308
0.11465461	0.54574867	0.11109049
0.62491366	0.30661496	0.12627515
0.61984438	0.80795442	0.12788078
0.61588118	0.05096647	0.63875264
0.64379691	0.56305425	0.61716113
0.11482548	0.31119179	0.61427075
0.10430215	0.80550209	0.61573615
0.13263581	0.05433276	0.12326553
0.1072458	0.54157386	0.12418557
0.62770013	0.30311651	0.12636049
0.61867033	0.80991244	0.12765651
0.61523844	0.0561242	0.62736541
0.63666016	0.56905656	0.62212415
0.10331343	0.30903687	0.62262089
0.1080892	0.80810614	0.60788645
0.13186053	0.0559335	0.12096067
0.1064395	0.5442684	0.12574887
0.62182718	0.30316929	0.12457624
0.60895106	0.81274851	0.12220785
0.62231558	0.06622643	0.62286593
0.61608696	0.56309822	0.62451238
0.09758936	0.3095232	0.62276055
0.12134279	0.81377574	0.60771969
0.12573475	0.05382283	0.10775514
0.11453028	0.54798306	0.11205778
0.61244014	0.30683267	0.11532407
0.60119023	0.81325387	0.11655738
0.63372643	0.06831725	0.62909659
0.60956265	0.55911088	0.62670563
0.10453137	0.31003631	0.61431329
0.11494983	0.81761008	0.61500733
0.1219115	0.04899612	0.10617814
0.123133	0.54778713	0.09669187
0.61168465	0.30685301	0.10444165
0.60234015	0.80923901	0.11811943
0.63568146	0.06418518	0.6302125
0.62319945	0.56530749	0.629074
0.12182811	0.3106907	0.60752574
0.10122562	0.81725208	0.6128558
0.12297137	0.04771409	0.12045843
0.12450117	0.54789241	0.09622919
0.62247591	0.30455699	0.10656578
0.61027575	0.8046625	0.12227458
0.62163996	0.06295393	0.62055414
0.62417615	0.57389892	0.62387109
0.12302854	0.31303416	0.60941246
0.10302448	0.81358326	0.60817821
0.11969504	0.05088401	0.13293425
0.12493023	0.55348023	0.10947915
0.62523755	0.30464763	0.11148002
0.61787227	0.80585451	0.12519727
0.61242477	0.06655153	0.60897101
0.60772343	0.5731282	0.60382131
0.10983018	0.31706124	0.61317652
0.11806275	0.8122085	0.60854348
0.10898052	0.05415009	0.1268842
0.13128194	0.5618211	0.11743631
0.61168152	0.30721235	0.10592691
0.62319984	0.81145339	0.12545515
0.61978096	0.06778494	0.6062937
0.59646337	0.56292056	0.60474553
0.10871268	0.31845599	0.61142401
0.12766087	0.81690488	0.60974127
0.10798978	0.05517935	0.10911885
0.13257869	0.56417042	0.11269989
0.60401113	0.30744986	0.1021663
0.62600615	0.81081159	0.12803875
0.639215	0.06622165	0.61212075
0.60536982	0.55913732	0.62096135
0.12457969	0.31563426	0.60596564
0.11923216	0.82043661	0.60512521
0.11190815	0.05463244	0.098556
0.11926642	0.55828407	0.1073808
0.61620381	0.30684485	0.10616856
0.62652499	0.80355238	0.1312523
0.64579781	0.06373981	0.61417032
0.61571367	0.56856052	0.61845648
0.13596228	0.31245318	0.60630488
0.10398886	0.81890578	0.5943285
0.11157178	0.05797877	0.10194117
0.10789227	0.55229267	0.11797702
0.62509543	0.30815662	0.11171772
0.62497209	0.80183476	0.12720994
0.63084753	0.06263562	0.60722364
0.60642277	0.57786821	0.60360988
0.13335415	0.31576229	0.61250765
0.10206269	0.81603313	0.58674136
0.10855736	0.06096962	0.1065331
0.10628289	0.55682528	0.13175481
0.61835282	0.31001854	0.11138567
0.62326677	0.80972317	0.11784294
0.6158938	0.06695042	0.6043964
0.59216592	0.57046192	0.602688
0.12408741	0.32612842	0.61707338
0.1127328	0.81736169	0.59466776
0.11011595	0.05883198	0.10068191
0.11441063	0.5665327	0.12929187
0.61078167	0.30937464	0.10676999
0.62433055	0.81432414	0.11863801
0.61731429	0.07476905	0.61405846
0.5947019	0.55946628	0.6124882
0.12075272	0.33191554	0.61779474
0.11639359	0.82301032	0.61391661
0.11697169	0.05522857	0.09604383
0.1171395	0.5699258	0.11322796
0.6158826	0.30694387	0.10627536
0.62137587	0.8061956	0.12951932
0.62504812	0.07767689	0.62357963
0.61009735	0.56056687	0.61786273
0.1262269	0.32801705	0.62107347
0.1070787	0.82675014	0.63205349
0.11885741	0.0561328	0.10308795
0.11017847	0.56444049	0.10977022
0.62720822	0.30666095	0.11315478
0.61318196	0.79494477	0.1306451
0.62343196	0.06867774	0.61746731
0.61941939	0.5674089	0.61312259
0.1273448	0.32420094	0.62861423
0.10193954	0.82718014	0.64064525
0.11425823	0.05973207	0.11515103
0.10036315	0.56043517	0.11989232
0.63215564	0.30916807	0.12328626
0.60265441	0.79400924	0.12290498
0.61234447	0.05803475	0.60735034
0.61780438	0.56620506	0.60840484
0.11837111	0.32947684	0.63488431
0.11221461	0.82963215	0.63957298
0.11486363	0.06370634	0.12226307
0.09972655	0.5626651	0.13120125
0.62667199	0.31003608	0.12622959
0.60042705	0.80233196	0.11596877
0.6011883	0.06135841	0.60465642
0.61222167	0.56013141	0.61047742
0.11505411	0.33472786	0.63435451
0.12348429	0.83147286	0.63769859
0.12190835	0.06583501	0.12250878
0.10692514	0.56626188	0.13189717
0.62094817	0.30421861	0.12555075
0.60904872	0.80909562	0.11458414
0.60766207	0.07025982	0.60912778
0.6230761	0.55915189	0.61379318
0.12200945	0.32880306	0.63326102
0.12058306	0.82983467	0.63886681
0.1275605	0.0658255	0.12035483
0.11062499	0.56267302	0.12287573
0.62148132	0.29998313	0.1286511
0.61517788	0.80733294	0.11463696
0.62183746	0.0688029	0.61858561
0.63852215	0.56556335	0.61372611
0.13331827	0.31782879	0.63567592
0.11135295	0.8266526	0.64140728
0.12876418	0.06681951	0.1241612
0.10143572	0.55765231	0.11787936
0.62266669	0.3054476	0.13232451
0.60795492	0.80172049	0.11459659
0.62785527	0.06180582	0.6278362
0.63750095	0.56889473	0.6140707
0.13578276	0.31905975	0.6358654
0.11490008	0.8234395	0.64039586
0.12744898	0.072049	0.13619237
0.09498546	0.55673	0.1231914
0.61694654	0.31312598	0.12657138
0.59495415	0.80292874	0.11395645
0.61775144	0.06567716	0.63469045
0.62866505	0.56401241	0.61964437
0.12564272	0.32568005	0.63297134
0.12691976	0.82103757	0.62920059
0.12685535	0.07679396	0.14386481
0.10999512	0.56089282	0.13157467
0.61314017	0.30875791	0.11755849
0.59848404	0.81008498	0.11571021
0.60588471	0.07479335	0.63875483
0.62643066	0.56026568	0.63160188
0.11636803	0.32573908	0.62903851
0.13494201	0.8211595	0.62383029
0.13095322	0.07462962	0.1371858
0.13368808	0.56733504	0.12910395
0.62116463	0.30014709	0.11927206
0.61860729	0.81021719	0.12345857
0.61175652	0.07668667	0.63720913
0.63347326	0.56254136	0.63778879
0.12068718	0.31987853	0.62605602
0.12935158	0.82206826	0.62820745
0.13202093	0.073952	0.12737323
0.13739419	0.57211571	0.11541082
0.63503	0.30173465	0.13371119
0.62157	0.80514964	0.12731991
0.62997045	0.06542209	0.63263183
0.64239975	0.56389495	0.63065704
0.13248088	0.31892561	0.62370633
0.11859441	0.82065833	0.63159879
0.12982339	0.07690818	0.12955805
0.1284169	0.57179667	0.11667472
0.63693295	0.30934573	0.14305211
0.61143311	0.80617369	0.11946412
0.63636965	0.05221106	0.63417863
0.6440264	0.56288127	0.62254968
0.13799486	0.32430999	0.62014823
0.12503502	0.81743018	0.62687398
0.12734855	0.0755841	0.14059942
0.13719207	0.56816116	0.13628732
0.62563849	0.31236767	0.13399842
0.61472102	0.81217958	0.11340727
0.62571773	0.04989285	0.64396663
0.63520243	0.56234556	0.62712419
0.13482275	0.32569571	0.62226983
0.13984109	0.81702317	0.6214551
0.12488461	0.06917845	0.14817993
0.15340241	0.57051383	0.135497
0.62155962	0.30920854	0.12545701
0.62399812	0.8140523	0.1216231
0.61789692	0.05804513	0.64270126
0.6334172	0.56261909	0.63620311
0.13143431	0.31888424	0.62690296
0.13851258	0.81920669	0.62205233
0.12509615	0.06370362	0.1427348
0.16089438	0.57667157	0.11406264
0.63074526	0.30760932	0.13047782
0.62730571	0.81177871	0.13144801
0.6245677	0.06136356	0.63058639
0.64268835	0.56309509	0.63941773
0.13307855	0.31652512	0.61821333
0.12884739	0.8197447	0.62719471
0.13116464	0.06353158	0.13184456
0.15232887	0.57907356	0.10413699
0.64096972	0.31139394	0.14125302
0.62812398	0.8127672	0.12861447
0.63717917	0.05488014	0.62408057
0.64372136	0.56400865	0.63589405
0.13745854	0.32013516	0.61135312
0.12523408	0.81939718	0.63045957
0.12536531	0.06518649	0.13285519
0.13751203	0.57327808	0.11268699
0.64213548	0.31481823	0.13911594
0.63181636	0.81450113	0.12113618
0.63849194	0.05065213	0.6283038
0.63180428	0.56539982	0.6353317
0.13873538	0.32387265	0.61902107
0.12538031	0.81741472	0.62880267
0.12316534	0.06535391	0.13999986
0.13370015	0.56613269	0.12452828
0.63938355	0.3108239	0.12789951
0.63636912	0.81337588	0.1218034
0.63261457	0.05861474	0.63200411
0.62571064	0.56687565	0.64308067
0.13593377	0.32300872	0.62825864
0.12505568	0.81542738	0.62904178
0.13511519	0.06460945	0.14271769
0.13886073	0.56554089	0.12685184
0.64388076	0.3017491	0.12359374
0.64123761	0.81121577	0.12464588
0.6335094	0.06713893	0.6249916
0.63156014	0.56568617	0.64672372
0.13488719	0.31849822	0.62834088
0.12590192	0.81653298	0.63495441
0.14050913	0.06250076	0.13708022
0.13441605	0.57086137	0.12181897
0.64199596	0.30484304	0.12285927
0.64416854	0.81144088	0.12064923
0.64617977	0.0644641	0.6175913
0.63573333	0.56204215	0.63785967
0.13746724	0.31375474	0.62043951
0.1298262	0.81935229	0.63765788
0.12921444	0.06079423	0.13020075
0.12025214	0.56816494	0.1210109
0.63481107	0.31746978	0.12084421
0.64006188	0.81524265	0.11281967
0.65357512	0.05577804	0.6268917
0.63538123	0.56042486	0.6242655
0.13960348	0.31365266	0.62298854
0.13085131	0.81840405	0.63504177
0.11846681	0.06241956	0.13392808
0.11163203	0.56016673	0.13328237
0.63099747	0.3216625	0.12092871
0.63464641	0.81941829	0.10912092
0.6404959	0.05239989	0.63874348
0.63554943	0.56210141	0.61715511
0.13718228	0.31675154	0.63168953
0.12549744	0.81585671	0.63091582
0.11613603	0.06323372	0.13870948
0.11949847	0.55734309	0.14388657
0.62611712	0.31656757	0.12453887
0.63595138	0.81965609	0.11184771
0.6229011	0.0582296	0.63303511
0.63886974	0.56274546	0.61921643
0.13060878	0.31524283	0.6335611
0.12193284	0.81703078	0.63292465
0.11359206	0.06000217	0.13387289
0.12852483	0.56330726	0.14097541
0.62690585	0.31144899	0.12762477
0.64369822	0.81522979	0.11508476
0.62619821	0.06522251	0.61999617
0.64369717	0.55720182	0.62395378
0.12927877	0.30927854	0.63026014
0.12738723	0.8225057	0.63834241
0.11477498	0.05566567	0.12590637
0.11642958	0.56724995	0.13559363
0.63597444	0.31319257	0.12669874
0.6490158	0.81199571	0.11661979
0.64421267	0.06808199	0.62038206
0.64317874	0.55701741	0.61842036
0.13556072	0.30785733	0.63011875
0.13687365	0.82695357	0.64251126
0.11991732	0.0571699	0.13128016
0.10375384	0.56384507	0.13829285
0.63707765	0.31651583	0.12534409
0.64604443	0.81421611	0.1153731
0.64985001	0.06577301	0.62901847
0.63819765	0.56515135	0.60202188
0.14057006	0.31118735	0.63391061
0.13536953	0.82469475	0.64091976
0.12637973	0.06257909	0.13775071
0.115155	0.55609612	0.14450216
0.62684002	0.31267478	0.1294605
0.63967536	0.81426058	0.1144017
0.63151843	0.06532212	0.62928528
0.63110595	0.56831726	0.60235945
0.13946446	0.31393294	0.63462514
0.12303312	0.81611871	0.63356026
0.12967494	0.06430371	0.13624561
0.12883973	0.55425086	0.14948401
0.62376224	0.30420786	0.13933043
0.6389061	0.8098845	0.11901992
0.62244299	0.07041987	0.61927998
0.61844599	0.56425462	0.61626725
0.13832512	0.31363775	0.63151557
0.12369398	0.81041988	0.62529619
0.13097069	0.06034075	0.13193293
0.12786638	0.5560353	0.14922265
0.62557485	0.30447697	0.13978003
0.64426544	0.80600915	0.12182837
0.63659346	0.07499226	0.60979531
0.60843954	0.56364795	0.62136631
0.13435033	0.31339866	0.63464598
0.13093637	0.81183463	0.62795242
0.1295486	0.06157638	0.13093196
0.12196344	0.55782985	0.14542961
0.62327968	0.31083662	0.12922433
0.64685039	0.80633086	0.11772164
0.6491854	0.07092151	0.61339306
0.61420494	0.56831739	0.61486211
0.12258004	0.31400848	0.64807942
0.12672048	0.81322877	0.63153361
0.12405578	0.06693287	0.13497584
0.12596211	0.55856898	0.1457351
0.61630114	0.31045622	0.12623534
0.63601169	0.8031705	0.11275086
0.63830038	0.06264366	0.62574281
0.62953586	0.57241036	0.61627475
0.11598585	0.31485139	0.65728972
0.11565154	0.80950367	0.62793314
0.12031491	0.06634875	0.13835185
0.13628334	0.55854363	0.14601103
0.61147751	0.3063257	0.13672734
0.61417522	0.79926714	0.11735469
0.61571313	0.05605691	0.63557581
0.62889963	0.5704184	0.63222124
0.11843352	0.31668441	0.65518469
0.11573081	0.80658994	0.62080239
0.1178593	0.06109634	0.12949207
0.1356531	0.56035826	0.14138039
0.6133363	0.30544313	0.14552888
0.60488986	0.79980974	0.13013996
0.60700399	0.05563638	0.63595989
0.61100474	0.56307023	0.64093377
0.12369571	0.31777331	0.65169546
0.13257368	0.81059093	0.61992423
0.12117447	0.05638322	0.11582506
0.12241671	0.56475674	0.13378132
0.6174433	0.30494639	0.14238338
0.6137831	0.80030998	0.12826192
0.61981185	0.0596698	0.631648
0.60611367	0.55800434	0.63295752
0.12179762	0.31637557	0.65423343
0.14804664	0.8193411	0.62017784
0.13064271	0.05670099	0.1137994
0.11713088	0.56619436	0.12484488
0.61470149	0.30310953	0.12976496
0.62754221	0.79992813	0.11799527
0.63550905	0.05910067	0.62858669
0.61954532	0.55685642	0.6243829
0.1131157	0.31551313	0.65779128
0.14216948	0.82363858	0.62108075
0.14077567	0.06146757	0.1249664
0.12808427	0.56386767	0.11682798
0.60753019	0.30085726	0.12381764
0.62724306	0.80163466	0.12224572
0.62524625	0.05201364	0.62907225
0.62175895	0.55719888	0.62742515
0.10474178	0.31789191	0.64744704
0.12167399	0.82084061	0.62369348
0.1382022	0.06523123	0.13270806
0.13480571	0.56258849	0.11493477
0.60988919	0.29874423	0.13519997
0.61337772	0.80559293	0.13397845
0.60959316	0.05066549	0.62699346
0.60796454	0.55584176	0.63459228
0.10175385	0.32171639	0.62850501
0.11609372	0.81806176	0.62674926
0.12798049	0.06415557	0.12761975
0.12915403	0.56394025	0.12083081
0.61986699	0.29948354	0.14671831
0.61086232	0.80891816	0.13902338
0.61640143	0.05718032	0.61896152
0.60116158	0.55339243	0.64059035
0.10365773	0.32139652	0.62424392
0.13166928	0.82035344	0.62906821
0.12548412	0.06016912	0.12107596
0.12359049	0.56634622	0.12554826
0.62560874	0.3034344	0.13599521
0.62736942	0.80954491	0.13479488
0.63726578	0.06094105	0.61564892
0.61386385	0.55450781	0.6416214
0.10002195	0.31613907	0.63162339
0.13236989	0.82144424	0.62721463
0.12948387	0.06241105	0.12465555
0.12227647	0.56285413	0.12395216
0.6224069	0.30843899	0.11159484
0.63127127	0.80769391	0.12905471
0.64529963	0.05729888	0.61961111
0.62926145	0.55880882	0.63368002
0.09622968	0.31480732	0.63366024
0.11088479	0.81632914	0.61965917
0.12912345	0.06690855	0.13272193
0.11926401	0.55672788	0.12134227
0.6194333	0.3108664	0.09986996
0.6171939	0.80566693	0.13249227
0.6274158	0.05344128	0.62641061
0.62723948	0.56055122	0.62640672
0.10323837	0.32057247	0.62564117
0.10265848	0.81399476	0.61715278
0.121924	0.06418344	0.12980765
0.10975719	0.55639852	0.12387195
0.61952335	0.31107952	0.11631305
0.61079513	0.80592733	0.14308116
0.60656782	0.0576803	0.62867584
0.61585071	0.55811079	0.62582639
0.11496902	0.3245648	0.61551553
0.11508177	0.8165924	0.62887048
0.11785455	0.05383905	0.12182176
0.10154703	0.56011943	0.12751867
0.62702464	0.3093768	0.13508124
0.62935438	0.80968192	0.14515145
0.60644471	0.06636196	0.62403519
0.61456496	0.55448012	0.63306807
0.11765078	0.32188731	0.6114565
0.12399609	0.82005612	0.64241883
0.12279565	0.04732534	0.12141453
0.10557647	0.56182948	0.12721411
0.63241338	0.30678786	0.12699623
0.64454417	0.81230629	0.13381665
0.61982223	0.07141055	0.6141802
0.6265149	0.55324993	0.64029596
0.10580932	0.31771126	0.61462896
0.11359251	0.8200977	0.63704513
0.12819177	0.05518142	0.12492057
0.11946075	0.56134084	0.12291208
0.62568406	0.30372934	0.102526
0.63679118	0.81158886	0.12427615
0.61334023	0.06770825	0.60687809
0.63790088	0.55743869	0.63760788
0.09470778	0.31650764	0.61518238
0.10537825	0.81700407	0.61839636
0.12346768	0.06750603	0.12512903
0.12321666	0.56167119	0.12244965
0.61828772	0.30203965	0.10813901
0.61489404	0.80678892	0.12766196
0.59456175	0.06025733	0.60863069
0.63757076	0.56137722	0.62929716
0.09932714	0.31662368	0.60686082
0.11796706	0.81374433	0.60992062
0.12263444	0.06610308	0.1220156
0.11218397	0.56635746	0.12803129
0.61537689	0.30267258	0.12692652
0.60883471	0.80282574	0.13725785
0.5878584	0.05542224	0.6150525
0.62676346	0.56204295	0.62759065
0.11441817	0.31414595	0.60063662
0.13810982	0.81342871	0.6202557
0.13002346	0.0596839	0.12108148
0.11034649	0.57219447	0.13070733
0.61240333	0.30266205	0.12249941
0.61856388	0.80457917	0.13129127
0.60192888	0.05666612	0.61960036
0.61304506	0.56227595	0.62923258
0.12751588	0.31054027	0.6074241
0.13280027	0.81596602	0.63253891
0.13784558	0.06110331	0.12356451
0.12215817	0.57063625	0.12584534
0.60919933	0.30222203	0.10083824
0.62587134	0.80809264	0.11534048
0.6140124	0.06136437	0.61765459
0.61150101	0.56475788	0.62137093
0.1301689	0.30990933	0.61997047
0.11533794	0.81893833	0.62657469
0.13791919	0.06738744	0.12061768
0.13755602	0.56236099	0.12463477
0.60974313	0.30164885	0.09102474
0.62685915	0.80595937	0.12040269
0.60801158	0.06355196	0.60942432
0.62138599	0.5675472	0.60716987
0.13181314	0.3149963	0.61877179
0.10694964	0.81833188	0.61292314
0.13002962	0.06730253	0.10507471
0.14135113	0.55552738	0.12391575
0.61137844	0.3019436	0.10174357
0.61949304	0.80020617	0.13856444
0.59176774	0.06184112	0.60462534
0.62054438	0.56774836	0.6063906
0.13528992	0.32243121	0.60634103
0.11802949	0.81552102	0.62007502
0.12431491	0.06040063	0.09793751
0.1355851	0.5544316	0.12232906
0.61385585	0.30234431	0.11270781
0.61842795	0.79474829	0.14398589
0.59317749	0.05993326	0.6073274
0.60497166	0.56414399	0.61846526
0.13418837	0.32578802	0.60863706
0.13059615	0.81614826	0.64151423
0.12174435	0.05723855	0.09947913
0.13211657	0.56114295	0.12663037
0.62200309	0.2999384	0.10838765
0.63116166	0.79521314	0.13823441
0.61389138	0.06195441	0.61345742
0.6063132	0.56162258	0.62815617
0.12370573	0.32117075	0.61617424
0.12563796	0.81850388	0.64197531
0.11569706	0.06055773	0.09676759
0.13254189	0.56713171	0.12956864
0.62862351	0.29594951	0.10040637
0.64707487	0.8013442	0.13520366
0.62744466	0.06612903	0.61531745
0.61740617	0.56433688	0.62669436
0.11360285	0.3123271	0.62267996
0.1112924	0.81760897	0.62086484
0.09880176	0.06467683	0.09219135
0.13243227	0.56188943	0.1248041
0.62489631	0.29688395	0.10208902
0.6439949	0.80487242	0.13808823
0.62019475	0.06524088	0.61337999
0.61910652	0.56782489	0.61623427
0.1110105	0.30871295	0.62681387
0.1048275	0.81346867	0.60932163
0.08884178	0.06394235	0.09117832
0.12723013	0.55809782	0.11549573
0.62048477	0.3010743	0.11138397
0.6278342	0.80230425	0.13414217
0.61324286	0.06042891	0.6148665
0.61070574	0.56660722	0.60673559
0.11365383	0.31537018	0.62585901
0.11548879	0.81166983	0.62091449
0.10625592	0.05776114	0.09640594
0.11797262	0.56053161	0.11556029
0.62229152	0.30118895	0.1177405
0.61914676	0.80017724	0.12077443
0.62376184	0.06086636	0.61916914
0.60631885	0.55903312	0.60179838
0.11602243	0.31895074	0.62241265
0.13242908	0.81463032	0.6450731
0.12362497	0.05219362	0.10106779
0.10921209	0.56077	0.12383164
0.62957612	0.30106675	0.1198023
0.62416312	0.80598858	0.10800085
0.64147211	0.06708947	0.61739731
0.61180616	0.55320174	0.60280177
0.11589313	0.31402029	0.62177682
0.13670474	0.81998654	0.64732827
0.11827316	0.05545016	0.09950647
0.10291021	0.55576402	0.12616081
0.63254105	0.30360527	0.12014627
0.62698687	0.81263527	0.1064889
0.64855024	0.06986477	0.60802114
0.61818725	0.55486995	0.60185742
0.11518919	0.31689284	0.62312135
0.12718388	0.82008011	0.63186781
0.10605963	0.05751964	0.09881261
0.10336392	0.54770744	0.11511099
0.62904744	0.3086166	0.11787899
0.61741771	0.8097093	0.11313682
0.63922927	0.06731364	0.60169456
0.61352076	0.56080011	0.59820671
0.11711383	0.32685467	0.62339512
0.12561678	0.81591831	0.61865608
0.10655937	0.05196392	0.10876233
0.11045529	0.54514072	0.10357106
0.62860736	0.31014127	0.11809514
0.60013514	0.80086735	0.11543769
0.62330432	0.06396821	0.61298648
0.60387149	0.56474133	0.60269314
0.11918712	0.32913593	0.61956368
0.1286491	0.81356821	0.62063198
0.12754457	0.04814302	0.12389999
0.113462	0.55369738	0.09624867
0.63120312	0.30509415	0.12282401
0.58918336	0.79820548	0.10730204
0.61723184	0.06189593	0.63233732
0.6029781	0.56439476	0.6147381
0.11206869	0.32168496	0.60954958
0.12197519	0.81429412	0.62725174
0.14489597	0.05349175	0.13579114
0.10907715	0.55988116	0.09657904
0.62907902	0.30176281	0.12800031
0.59236242	0.80265378	0.09602068
0.62812694	0.06705269	0.64261272
0.60788407	0.56228466	0.62228394
0.09852715	0.31607147	0.59771551
0.12359672	0.81683747	0.62340169
0.13317478	0.06221796	0.13746877
0.10154856	0.55442675	0.10103567
0.62197237	0.30555224	0.13017836
0.60216952	0.8043752	0.09275899
0.63730745	0.07201468	0.63610265
0.60710597	0.56359054	0.62205178
0.09851444	0.31810929	0.60431923
0.12402531	0.81772642	0.61195369
0.11338794	0.06311725	0.13390972
0.10937457	0.54911434	0.10015152
0.61345738	0.30669036	0.13717535
0.60974183	0.79836991	0.09748492
0.62632842	0.06810428	0.62458451
0.60306359	0.56814568	0.61764744
0.11288397	0.32387636	0.6199694
0.11924647	0.81891208	0.60806589
0.12866904	0.05773465	0.13332116
0.11944528	0.55602707	0.09375489
0.6168752	0.3039888	0.14463342
0.60907831	0.79448615	0.09731537
0.60397036	0.06011494	0.62906402
0.60555581	0.56907948	0.61367438
0.1189629	0.32564039	0.61357853
0.11598555	0.82476019	0.61707226
0.15465406	0.05272867	0.13835613
0.11610178	0.56697609	0.09282289
0.61801368	0.30078688	0.13990381
0.61412066	0.80001187	0.09109572
0.59642086	0.05640343	0.64493984
0.61605178	0.56575046	0.61046406
0.11357202	0.32329094	0.60906669
0.1210032	0.82826832	0.62579496
0.15854108	0.05377773	0.13950983
0.10860256	0.56836537	0.09815365
0.61681126	0.2996423	0.13245573
0.62213451	0.80873171	0.09168272
0.60268186	0.05777316	0.64131759
0.62747475	0.56472015	0.60547064
0.11030044	0.32044176	0.61695367
0.12931697	0.8251052	0.61694697
0.1428611	0.0602133	0.13181458
0.10969576	0.56107404	0.10630049
0.62019813	0.30094891	0.13833389
0.62488203	0.8088806	0.10212927
0.60959835	0.05977332	0.61692362
0.63365947	0.56635441	0.60308961
0.12196707	0.31966073	0.62021684
0.12302184	0.82124396	0.59461723
0.12454554	0.06631859	0.13035688
0.12124492	0.55973143	0.10974484
0.62277984	0.30344112	0.13916145
0.62220688	0.80453118	0.10863324
0.60914481	0.06054346	0.60585447
0.63519154	0.56676308	0.60835393
0.1315622	0.31944647	0.60795363
0.10490475	0.82271465	0.5848304
0.11834105	0.06754357	0.13781456
0.13270686	0.5677888	0.10836431
0.6202081	0.30531925	0.12349871
0.62120445	0.80506195	0.10845098
0.60594935	0.05882542	0.61693329
0.63809269	0.56455133	0.61738004
0.12204384	0.31804379	0.59877435
0.09211598	0.82493304	0.59459515
0.12488817	0.06020867	0.14449826
0.13561609	0.57392275	0.10735019
0.61656816	0.30649252	0.11858053
0.62532099	0.81244222	0.10941203
0.6130312	0.05816888	0.63799589
0.64328622	0.5626702	0.62336066
0.11546708	0.3153652	0.6126461
0.09438871	0.82319788	0.60660114
0.12217534	0.05340822	0.14409067
0.13171079	0.57111912	0.11396688
0.62065626	0.30628938	0.12547183
0.63128507	0.81432215	0.11558119
0.62615346	0.05914281	0.6446418
0.64701677	0.5622692	0.62482865
0.12499486	0.31400312	0.63233557
0.10896351	0.81940855	0.60117407
0.10373686	0.05795006	0.1418627
0.12756866	0.5654193	0.11430936
0.62622344	0.30568064	0.12887202
0.627941	0.80737464	0.12524141
0.63088782	0.05950948	0.63771371
0.64530033	0.56134671	0.62459987
0.13747289	0.31729938	0.64199213
0.12047293	0.81565121	0.58909368
0.09424903	0.06791759	0.1390856
0.12880852	0.56436599	0.11116977
0.62680664	0.30619189	0.12282511
0.62037135	0.80215386	0.1343139
0.62984009	0.05624342	0.63071698
0.64145626	0.55913436	0.62232902
0.13947829	0.32023051	0.63917833
0.12031394	0.81412542	0.59416795
0.10262837	0.07340011	0.13244431
0.13428725	0.56823727	0.11965656
0.63691234	0.30884871	0.11659662
0.62173874	0.80760938	0.13485174
0.63063879	0.05294179	0.63464958
0.63995572	0.55762753	0.61776394
0.13816735	0.3131705	0.63180279
0.11514026	0.81426724	0.61345111
0.11447027	0.06844026	0.12403383
0.13727174	0.57155003	0.12984066
0.65223664	0.30943195	0.11788819
0.62595001	0.81481369	0.12520758
0.63549043	0.05447434	0.6391173
0.64489094	0.55689743	0.6156388
0.14089612	0.31040595	0.62560325
0.11233669	0.81340379	0.61944448
0.12367087	0.06368946	0.12271771
0.13095263	0.57088135	0.13249783
0.66167469	0.30738544	0.1234695
0.628894	0.81521824	0.12132114
0.64373649	0.05875771	0.6336881
0.65203938	0.55568875	0.617891
0.14275937	0.31650405	0.62728048
0.11219144	0.81111674	0.61141803
0.12323802	0.06996518	0.13075449
0.12336699	0.56821347	0.1292806
0.65513038	0.30934853	0.12424184
0.62140411	0.80689636	0.12999905
0.64902836	0.06114396	0.62248681
0.65184513	0.55571211	0.62272334
0.14234917	0.31944939	0.63718821
0.1103886	0.81064546	0.61341349
0.1231159	0.0731942	0.13965559
0.12732203	0.56744026	0.12765237
0.63682549	0.31382831	0.11982746
0.61138923	0.80234498	0.13382258
0.64757933	0.06126251	0.62198033
0.64288693	0.55850396	0.62860539
0.14029101	0.31850242	0.64814171
0.11096102	0.81444067	0.63149799
0.12508107	0.06777485	0.13954655
0.13295817	0.56825492	0.13125596
0.62228772	0.30966638	0.11632792
0.61092193	0.80910007	0.12553705
0.64278194	0.05951557	0.63547231
0.62986468	0.5608651	0.63313576
0.14156356	0.31804894	0.65166066
0.11902879	0.818273	0.64660406
0.13023093	0.06628231	0.13540982
0.13255197	0.56669018	0.13470624
0.623466	0.30345417	0.1161562
0.61484891	0.81712854	0.11692397
0.63854074	0.06222849	0.6473169
0.62050873	0.56011846	0.63567225
0.14617443	0.31966501	0.64843847
0.12978271	0.8185329	0.6487129
0.13698942	0.06591574	0.13130864
0.13000636	0.56519742	0.13287737
0.63116765	0.30605127	0.12252494
0.61313418	0.81426326	0.11649754
0.6380874	0.06698571	0.63546056
0.61770458	0.55938521	0.63517599
0.15095257	0.32035684	0.64642759
0.1388766	0.81903096	0.64675678
0.1399628	0.06661488	0.13676532
0.133312	0.56911806	0.13171603
0.63577586	0.3140802	0.12925814
0.60969849	0.80339389	0.1178781
0.63772977	0.06886555	0.61216172
0.61685047	0.55996087	0.62596448
0.15872109	0.31856547	0.64604418
0.14603409	0.82077045	0.64639739
0.13816287	0.06971077	0.14142732
0.14140222	0.57171481	0.13490551
0.63607483	0.31645059	0.12483035
0.60954998	0.80052347	0.11411131
0.63303736	0.06808533	0.60573028
0.61405917	0.56235345	0.61531728
0.16339966	0.31579359	0.64731069
0.14838933	0.82165699	0.64710175
0.13294988	0.07406949	0.13791949
0.14100084	0.56841734	0.14005519
0.63613568	0.31137817	0.12602903
0.61579117	0.80959885	0.110017
0.62613396	0.06982304	0.61183752
0.61223267	0.56606846	0.61453817
0.15476104	0.3144574	0.64871829
0.14314973	0.82032769	0.64761747
0.12957741	0.07456034	0.1308716
0.1304025	0.56216828	0.14400241
0.6398752	0.30530051	0.13354845
0.62868855	0.81916608	0.11006798
0.63067869	0.07299191	0.61806618
0.61581203	0.56913297	0.62796157
0.13410801	0.31566031	0.64781112
0.14494412	0.81769892	0.64565501
0.12948304	0.06972229	0.12299452
0.12165375	0.55796596	0.14634021
0.64097047	0.30752581	0.13498931
0.64013502	0.81702829	0.11653357
0.64177963	0.07279671	0.61659279
0.62367329	0.57266687	0.640024
0.12280329	0.31643878	0.64894607
0.14711537	0.81578689	0.63992804
0.12932547	0.06235857	0.12099213
0.11740588	0.55731437	0.15080718
0.63180187	0.31562187	0.13072687
0.64116439	0.81148908	0.12470182
0.64410791	0.07009083	0.61244718
0.63069019	0.57750019	0.64155226
0.13067885	0.31689965	0.65299982
0.13924327	0.81439539	0.63524679
0.12426024	0.0571023	0.1293587
0.12452168	0.55936641	0.15321005
0.61474786	0.3200798	0.12759594
0.64442763	0.81423754	0.13052593
0.62896033	0.06747931	0.61464934
0.62989297	0.58011055	0.62907684
0.13176417	0.31618028	0.64716404
0.13083671	0.81451752	0.63492798
0.12108294	0.05521159	0.13838725
0.13872449	0.56116047	0.15216853
0.61766028	0.315548	0.12757315
0.64862853	0.82299035	0.13574478
0.61552618	0.06715465	0.62473376
0.6231627	0.57668053	0.60967965
0.12419171	0.31779698	0.63643588
0.13081663	0.81587558	0.63396711
0.13250564	0.05472873	0.1343026
0.13741506	0.55993493	0.14912388
0.63270312	0.31003527	0.12586094
0.65042817	0.82368899	0.1428697
0.62166382	0.0680019	0.62655591
0.62618359	0.56904231	0.6023291
0.1199409	0.32206739	0.63053388
0.14190868	0.81590007	0.62436576
0.14336296	0.05750264	0.13078392
0.12075809	0.5585257	0.14103435
0.62844347	0.31190172	0.12271704
0.64605273	0.81367727	0.14488084
0.63908426	0.06663935	0.60607384
0.63905554	0.56209465	0.61857354
0.11823384	0.32400176	0.62790419
0.15119054	0.81653575	0.61314937
0.12828708	0.06266634	0.13419752
0.11361238	0.56149796	0.13242983
0.6115639	0.32179594	0.11915917
0.64032144	0.8051951	0.13625735
0.63912899	0.06532119	0.59535772
0.64430791	0.56029091	0.63760663
0.11474122	0.32092234	0.62785093
0.14712896	0.82105503	0.61262077
0.11876894	0.06590178	0.13268768
0.12086836	0.56609235	0.12853041
0.60965646	0.32442393	0.11852725
0.64309131	0.8073683	0.13301699
0.6226933	0.06664369	0.6039193
0.64082888	0.56290094	0.63222627
0.10748516	0.31731931	0.63069646
0.13772526	0.82644258	0.62370723
0.12822663	0.0650181	0.12547201
0.12585521	0.56790557	0.12673355
0.62466566	0.31671532	0.11997759
0.65165396	0.81514536	0.13853477
0.61367897	0.06873873	0.61459057
0.63952386	0.56513807	0.62027796
0.09893059	0.3187442	0.63554009
0.1362712	0.82621302	0.63153685
0.13781308	0.06289768	0.11881717
0.11820115	0.56543959	0.12159076
0.62533189	0.30881739	0.12283429
0.65153485	0.81949627	0.13330036
0.62116677	0.06838758	0.61285556
0.64313864	0.56215015	0.6225733
0.09777883	0.32287679	0.63843656
0.14052262	0.82152671	0.63299544
0.13048219	0.06065816	0.11630977
0.108963	0.56291177	0.11890084
0.60951359	0.31080018	0.12471821
0.6403279	0.81487295	0.11746265
0.62523858	0.06822473	0.6135766
0.64256216	0.56064277	0.63691026
0.10678721	0.32565468	0.63081946
0.13780244	0.82204322	0.63302764
0.11425505	0.06005657	0.11670511
0.11343978	0.56217024	0.12486971
0.60233568	0.31849018	0.1260594
0.64086941	0.80907209	0.10744791
0.61727501	0.0700724	0.62755624
0.63369588	0.56363687	0.64280871
0.11399128	0.32232702	0.61461636
0.12649865	0.82834569	0.63368659
0.10769233	0.06288631	0.11930429
0.12447437	0.56194268	0.13615747
0.60736882	0.32286433	0.11974841
0.65408544	0.80963993	0.11032059
0.60550392	0.07008581	0.63364344
0.62373634	0.564694	0.63186983
0.10910514	0.32077973	0.6020336
0.11716041	0.82985722	0.63462749
0.11652151	0.06896554	0.12241839
0.12724356	0.56403227	0.13896772
0.61589989	0.31344937	0.11718523
0.65522729	0.81062147	0.11797779
0.60707998	0.06532143	0.62877089
0.61755304	0.56137458	0.6308842
0.10184032	0.32198336	0.60332238
0.12011827	0.823057	0.63213947
0.12641775	0.07254941	0.12119017
0.12001331	0.56698552	0.12682433
0.61965984	0.30035453	0.12789306
0.64049732	0.80528292	0.12310134
0.61888536	0.06236299	0.62127027
0.61508603	0.5581277	0.64228339
0.10171927	0.32251123	0.60635416
0.12641311	0.81818891	0.62436417
0.12067216	0.07183986	0.11789518
0.11543039	0.56798646	0.11074701
0.61441863	0.3023514	0.13507296
0.6289668	0.79714566	0.12419595
0.62291842	0.06625892	0.61781386
0.61408289	0.5591827	0.64198477
0.1056641	0.32217478	0.59762179
0.12578144	0.81955033	0.62018757
0.10881936	0.06976743	0.11845107
0.11844445	0.56818865	0.10917007
0.60858008	0.30780858	0.1299803
0.62863096	0.79260743	0.12936927
0.61188357	0.0668701	0.61973694
0.61283666	0.56351331	0.6315297
0.10952999	0.32025271	0.5940551
0.12307776	0.82178479	0.62541395
0.11619084	0.06851221	0.1191443
0.12741992	0.56931881	0.11783892
0.61815351	0.30294049	0.12534792
0.62862124	0.79430452	0.14063552
0.59714383	0.06330983	0.62597906
0.61369054	0.56491097	0.62509344
0.11703362	0.31469609	0.60007718
0.12605527	0.8194493	0.63224131
0.13302747	0.06788778	0.11215527
0.13828637	0.57020331	0.12165571
0.63220528	0.29445364	0.13169606
0.62406697	0.80134901	0.14308737
0.59539642	0.05881483	0.63304329
0.61584149	0.56118361	0.62284099
0.12016562	0.31283877	0.60369015
0.12989548	0.81398656	0.62522382
0.13803741	0.06642765	0.09942665
0.14609629	0.56656733	0.11393687
0.6301446	0.2940053	0.13381641
0.61992177	0.80748784	0.13003578
0.60493409	0.06064106	0.63913225
0.61703563	0.55933415	0.61945893
0.12363672	0.31510462	0.60410056
0.12803256	0.81046892	0.61146859
0.12709717	0.06242294	0.10134972
0.1481954	0.55903012	0.11278382
0.61552847	0.30035535	0.12422017
0.62150599	0.80778711	0.11790883
0.61060612	0.06358529	0.64463854
0.61911842	0.56227993	0.61579926
0.12925728	0.31221986	0.60427111
0.11900329	0.81056272	0.61118782
0.11473506	0.05746196	0.11267435
0.14598634	0.55616271	0.12856677
0.615278	0.30447543	0.11279495
0.62579801	0.80462576	0.12516344
0.60697181	0.05978029	0.64838293
0.61612017	0.56435039	0.61567469
0.13239582	0.3057778	0.60768349
0.11337724	0.81181665	0.62195323
0.11464096	0.05685941	0.11551647
0.14202978	0.55931969	0.13967409
0.63674823	0.30118711	0.11000569
0.62534769	0.80340636	0.13885329
0.60498095	0.05387059	0.6447341
0.61446538	0.56260128	0.61609139
0.12940098	0.30877678	0.61005561
0.11322499	0.80806084	0.62488239
0.13000208	0.05906822	0.1060381
0.13884773	0.56357343	0.13008974
0.64798641	0.29540584	0.11374149
0.61412887	0.80611762	0.13550343
0.61271951	0.05379842	0.6344208
0.62074368	0.55797387	0.61680923
0.12639041	0.31342331	0.60896967
0.10940156	0.80318943	0.61748525
0.13698396	0.05932151	0.09341308
0.13453021	0.5631253	0.10831591
0.63070951	0.29684834	0.11760509
0.60073949	0.80649296	0.1257909
0.62344043	0.05341603	0.62118418
0.62446063	0.55639792	0.62242121
0.12916701	0.31003725	0.60866355
0.10070756	0.80573373	0.61162058
0.12596947	0.05553892	0.08670395
0.12189741	0.55788689	0.0981881
0.61476433	0.30460862	0.1188979
0.60174332	0.7989372	0.12455917
0.62885768	0.04990505	0.61498079
0.61874267	0.55961168	0.62867214
0.13278057	0.30104197	0.61600376
0.09519875	0.81351875	0.61807113
0.11246934	0.0515576	0.0950534
0.11274708	0.55061865	0.10955272
0.6208875	0.30914727	0.12059473
0.60241642	0.79275462	0.12754873
0.6294954	0.04567461	0.61976093
0.61149619	0.56100042	0.62117607
0.12901311	0.29724724	0.6267739
0.10181419	0.81871936	0.62881732
0.10879545	0.05138512	0.11386744
0.11550586	0.54941587	0.11874864
0.62868337	0.30407974	0.1232724
0.59506128	0.79812462	0.12737044
0.63090459	0.04747634	0.62255806
0.61010634	0.55734597	0.60788787
0.12633135	0.30224245	0.63307327
0.11271278	0.81934137	0.62610203
0.11199284	0.05486001	0.12352373
0.12112156	0.55245139	0.11055053
0.62270351	0.29670612	0.12491098
0.59553769	0.80484787	0.12022365
0.63500169	0.05431268	0.61409935
0.6121209	0.55265547	0.60830291
0.1211001	0.31176005	0.62923871
0.10735417	0.81662709	0.61496039
0.10810332	0.05525846	0.11907079
0.11820712	0.55347813	0.10249704
0.61322582	0.29647477	0.12127692
0.60877275	0.80185867	0.10962401
0.63852331	0.05803746	0.60703702
0.61118819	0.55237532	0.6189021
0.11303153	0.31592145	0.62012701
0.09938846	0.81101229	0.61068128
0.0959733	0.05021711	0.11653321
0.10959419	0.54995467	0.10690967
0.61496422	0.30152143	0.11551416
0.62118397	0.79642287	0.10218944
0.63851866	0.0542374	0.60662611
0.60518847	0.55420596	0.62307087
0.11361923	0.30731272	0.61423556
0.10617733	0.80744394	0.618906
0.09246711	0.04943211	0.12991022
0.10154201	0.54895222	0.11908247
0.62576636	0.30380552	0.1163607
0.62152114	0.79828378	0.10218591
0.63301163	0.05099489	0.60778029
0.60180886	0.55578193	0.61450519
0.11054461	0.30020516	0.61713014
0.11371121	0.80712147	0.62913239
0.10227424	0.05692983	0.14362463
0.09718599	0.55378625	0.12451325
0.63199561	0.29676983	0.11657965
0.6184655	0.80474818	0.10833876
0.62617575	0.0539971	0.60356053
0.60538455	0.55630358	0.60961236
0.10352012	0.30594988	0.62327588
0.11206033	0.80876041	0.62566835
0.11472544	0.06397988	0.13615266
0.09274425	0.55604337	0.1149464
0.62616638	0.28782473	0.11482703
0.6201557	0.8060531	0.10410162
0.62513552	0.05854072	0.59344104
0.61263041	0.55645434	0.62035142
0.10396069	0.31511841	0.62643617
0.10761826	0.81259324	0.6158091
0.12333272	0.06064794	0.11801365
0.0887826	0.55223222	0.10471011
0.62116987	0.28924602	0.11510426
0.62557493	0.80052714	0.09463225
0.63077777	0.05990439	0.59649263
0.61571524	0.55498797	0.6302684
0.11507073	0.31439202	0.62240699
0.1113244	0.81371594	0.61702692
0.12234918	0.05378751	0.11869792
0.09418995	0.5504845	0.1088417
0.6195818	0.30067976	0.11439161
0.63019091	0.79999499	0.10114109
0.62983665	0.05756909	0.61293481
0.61248886	0.55347844	0.62780725
0.12662198	0.31106948	0.61678989
0.12231518	0.81284188	0.62115619
0.11894737	0.05371227	0.13892812
0.11052488	0.55750101	0.11996351
0.62318999	0.30905575	0.10991058
0.62788684	0.80455948	0.11675425
0.61345482	0.05493465	0.62367303
0.61430545	0.55647972	0.61561151
0.12664317	0.31625222	0.6239396
0.12823961	0.81457429	0.61664692
0.11919392	0.06030612	0.15293787
0.12360235	0.56607914	0.12209956
0.62437288	0.30419659	0.10621087
0.61806115	0.80574059	0.12176651
0.60172353	0.05810987	0.62379875
0.61807742	0.55915137	0.60558054
0.11703191	0.32532691	0.63364126
0.12499564	0.82273175	0.60688237
0.12502136	0.06147456	0.13889921
0.12267797	0.56548634	0.11899984
0.615662	0.29570225	0.10176127
0.61657906	0.80214592	0.12122825
0.60294057	0.06297727	0.62105157
0.61466158	0.55752415	0.60128963
0.11496703	0.32579867	0.63237229
0.12058218	0.82211617	0.60431593
0.13213021	0.05526952	0.11597737
0.11437296	0.5598295	0.12321821
0.5998069	0.30057508	0.09562067
0.62748036	0.79975374	0.12393158
0.61078721	0.06189656	0.62282534
0.61559322	0.55702201	0.60113054
0.12279766	0.31938697	0.61481833
0.12413575	0.81742689	0.6066552
0.13365738	0.05313566	0.11303896
0.12121593	0.55752309	0.13415752
0.59668533	0.31002239	0.09703695
0.63448446	0.80116853	0.12895724
0.60960639	0.05818957	0.63069967
0.62695262	0.56017203	0.60330076
0.12994263	0.31389101	0.61026261
0.13119563	0.82290438	0.60586284
0.13570091	0.0613294	0.12487902
0.13087733	0.56197015	0.14261754
0.61040133	0.30786005	0.10600999
0.63106225	0.80297439	0.13022391
0.60641422	0.05739785	0.63112481
0.63348241	0.56429241	0.60567879
0.12690913	0.31526032	0.62006237
0.13144957	0.82718489	0.60610202
0.14488199	0.06883715	0.12681793
0.12796317	0.5674704	0.13769267
0.6198922	0.30070753	0.11268779
0.62377269	0.80245471	0.12550352
0.61624572	0.06129375	0.61969043
0.63284826	0.56774097	0.60698272
0.12370811	0.32239433	0.62792389
0.12573381	0.82473194	0.61383982
0.15219291	0.06651705	0.11398953
0.11683539	0.5672507	0.12435286
0.61351797	0.3064153	0.11453978
0.6256992	0.80127033	0.11974057
0.62008004	0.06709618	0.6199088
0.63101648	0.56777391	0.61203973
0.12762054	0.32662042	0.62501856
0.12350607	0.81973151	0.6220572
0.14500691	0.06158082	0.10073508
0.11238803	0.56289984	0.11790143
0.60777399	0.31752042	0.11305464
0.62608795	0.80142525	0.11770582
0.61717856	0.07023591	0.63455437
0.63177265	0.56458017	0.62159449
0.13012545	0.32238078	0.62145674
0.12670138	0.81853675	0.62380701
0.12839186	0.06427379	0.09844965
0.11572772	0.5609969	0.12368153
0.61527326	0.32092716	0.11722714
0.62227082	0.80330245	0.12031301
0.61947404	0.0687591	0.63894041
0.63239841	0.56439347	0.62077256
0.12210351	0.32341397	0.62119784
0.12666977	0.82175671	0.61883613
0.12015969	0.07320898	0.10886952
0.12261441	0.5654792	0.12875447
0.62883193	0.31779502	0.12491889
0.61872653	0.80838706	0.12737868
0.62833513	0.06465585	0.63008857
0.62967714	0.5689882	0.61539775
0.1150473	0.32885224	0.62683896
0.12094332	0.82447177	0.61707017
0.11953906	0.07659023	0.12515555
0.12703728	0.5688689	0.12668538
0.63471877	0.31388334	0.13396897
0.6142861	0.81508812	0.13519001
0.62908534	0.06041073	0.62103102
0.62659722	0.56942051	0.62200996
0.11540433	0.32988207	0.62717308
0.11969052	0.82451074	0.62504247
0.11921266	0.07024798	0.126374
0.12815973	0.56650233	0.12042748
0.63015584	0.31062516	0.13873412
0.61122832	0.81754838	0.13504483
0.62443815	0.06245116	0.62749665
0.62587603	0.56450849	0.62852273
0.11690761	0.32384423	0.62144028
0.12460341	0.82077693	0.63539578
0.11201299	0.06440532	0.11333127
0.13085105	0.56290796	0.12622996
0.62488473	0.30911169	0.13525175
0.60721222	0.81583912	0.125922
0.62633006	0.0695212	0.64676083
0.62940996	0.56157181	0.6292114
0.1147074	0.31652123	0.62259868
0.12408959	0.81714981	0.63697351
0.10520313	0.0671322	0.11526524
0.1302525	0.56505168	0.13147316
0.62950749	0.3076085	0.12917941
0.60416815	0.81433294	0.12709317
0.63233613	0.07198801	0.65426717
0.6285785	0.56275045	0.62566072
0.11477981	0.31716432	0.63093683
0.11851138	0.81775394	0.62856697
0.10668203	0.07132341	0.13914608
0.12889232	0.56937021	0.12798695
0.63995223	0.3065093	0.12936225
0.60562843	0.81277791	0.13416857
0.63580738	0.06735573	0.64199229
0.62214867	0.56517305	0.62690116
0.12288987	0.32453786	0.63210913
0.11781153	0.81954785	0.62607725
0.11071534	0.06794407	0.14917317
0.12875094	0.57017982	0.12202586
0.64045754	0.30786516	0.13286255
0.61226675	0.80951563	0.13477821
0.63531633	0.06390638	0.63100344
0.62225982	0.56645058	0.63352932
0.13519089	0.32640173	0.62413055
0.12118748	0.81893542	0.63310244
0.1125973	0.06157719	0.13870202
0.12814822	0.5681592	0.11505378
0.63236764	0.30856499	0.13618793
0.6170879	0.80874071	0.12603107
0.63286692	0.06799576	0.63624985
0.62908193	0.56605832	0.64199675
0.14140126	0.31949606	0.62084387
0.11987552	0.81945736	0.63877776
0.11294059	0.06278707	0.13792676
0.13243279	0.56690446	0.10775833
0.63144085	0.30771709	0.13402292
0.62099079	0.81438109	0.11806668
0.62567993	0.07268835	0.64107205
0.62594868	0.56642551	0.63964096
0.14105662	0.31770551	0.62869831
0.11328182	0.82213277	0.63584649
0.11346307	0.06800065	0.15196592
0.13960884	0.56754109	0.10502955
0.63476951	0.30867128	0.13451881
0.62615117	0.81990305	0.12091346
0.62012687	0.06919601	0.63042854
0.61217742	0.56849064	0.62760546
0.14138121	0.3223363	0.63669343
0.11203248	0.82632178	0.62978932
0.11463711	0.06797426	0.15138108
0.14136965	0.56758188	0.11144348
0.63303371	0.31046904	0.14101992
0.63164812	0.81945841	0.13057397
0.62560706	0.05850635	0.61683725
0.60562533	0.57199694	0.62748656
0.14196639	0.32359516	0.63036823
0.12330609	0.8283802	0.62498277
0.11802884	0.06370348	0.14048677
0.13561008	0.56561953	0.12265034
0.62428103	0.3098982	0.14881565
0.63296162	0.81416682	0.13191528
0.63357491	0.05734324	0.62035687
0.61088676	0.57138848	0.63104699
0.14288578	0.31712935	0.62286431
0.13434823	0.82756025	0.62342496
0.12170543	0.06038358	0.13521873
0.12968559	0.56443911	0.13406483
0.61671824	0.30837539	0.14892605
0.63049639	0.80885172	0.11726437
0.63584968	0.06585775	0.63308174
0.62553702	0.56702621	0.62933552
0.14199652	0.31129082	0.62660024
0.12690066	0.82819414	0.62360378
0.1238729	0.05973643	0.13415746
0.12694563	0.56672848	0.14234873
0.61444793	0.30763594	0.14004559
0.63065241	0.80612725	0.10717905
0.63059888	0.07005806	0.63001491
0.64026093	0.56381231	0.63096062
0.14125557	0.31344552	0.63734408
0.11378194	0.82954713	0.6214513
0.12396014	0.05839041	0.13200176
0.12501338	0.56973347	0.14626847
0.62054675	0.30760956	0.14158064
0.63606926	0.80539124	0.11856443
0.6283635	0.06380614	0.62012326
0.64634992	0.56422076	0.6313304
0.14266497	0.32242475	0.63976702
0.11493749	0.82904743	0.61637697
0.1238526	0.05695268	0.12839159
0.1216715	0.57054186	0.14674376
0.62728113	0.30711109	0.15089394
0.63891089	0.80483358	0.13250915
0.63792944	0.05565683	0.62482996
0.6471376	0.56473317	0.62945889
0.13914543	0.32871935	0.63037738
0.12887932	0.82751233	0.61133553
0.12134571	0.05889746	0.12912873
0.11617028	0.567116	0.13924312
0.62387326	0.30720743	0.1483583
0.63441143	0.80373726	0.12440654
0.6464924	0.05505645	0.64309567
0.64771928	0.56350791	0.6274229
0.13410511	0.32524499	0.62565971
0.13392402	0.82645327	0.61590416
0.11860342	0.0650781	0.13451024
0.11225401	0.56279761	0.12435158
0.61423829	0.30861329	0.13751174
0.629161	0.80750378	0.10647466
0.64513675	0.06127308	0.65113322
0.6471625	0.56323598	0.62630346
0.13511839	0.31708033	0.63710354
0.12654484	0.82673639	0.62709745
0.12486303	0.06868906	0.1369314
0.11639744	0.56098725	0.11432936
0.61609084	0.31057565	0.13000747
0.62752065	0.81517106	0.10047564
0.64366815	0.06482521	0.6407109
0.64240179	0.56286842	0.62487199
0.13693371	0.31241252	0.65205316
0.12741409	0.82616367	0.62643691
0.13391681	0.06703561	0.13200331
0.12303572	0.56034928	0.11022671
0.62949129	0.31103743	0.13239222
0.62750881	0.81690721	0.1166179
0.64062108	0.06094544	0.6281841
0.63143999	0.56145925	0.62473107
0.12957342	0.31595433	0.65105174
0.13812295	0.82041838	0.62102984
0.13062149	0.06521354	0.12706752
0.12230837	0.5582527	0.1103724
0.63227845	0.31001113	0.14084097
0.62298021	0.81183027	0.1325499
0.63290626	0.05642764	0.63069744
0.62208967	0.55971225	0.62419488
0.11992774	0.3206654	0.63879468
0.14632412	0.81189981	0.62545042
0.12958034	0.06727534	0.13001889
0.11923746	0.55606363	0.11684598
0.62152688	0.30871758	0.14187635
0.61564802	0.80559287	0.12892267
0.63543896	0.05872841	0.63998038
0.62455247	0.5580478	0.62386362
0.12161548	0.31833227	0.63522874
0.14343202	0.80840113	0.63194363
0.13976211	0.07148513	0.14030199
0.12323607	0.55657497	0.12887718
0.61761965	0.30911568	0.13017514
0.61332315	0.80331175	0.11392179
0.64171616	0.0654058	0.64112264
0.63580701	0.55710984	0.62744361
0.12957471	0.31573894	0.6448478
0.13259019	0.81266993	0.62824135
0.14289869	0.07178302	0.14759294
0.13458411	0.55964847	0.136587
0.62483619	0.30851177	0.11173575
0.61854933	0.80354274	0.10769185
0.64093663	0.06566978	0.63037006
0.63779114	0.55946371	0.6317722
0.13108389	0.31916347	0.64816386
0.12657065	0.81810429	0.61918212
0.13518445	0.06974332	0.14564814
0.14231325	0.56393144	0.13723606
0.63293221	0.30528642	0.10438798
0.62724744	0.80126669	0.11998412
0.63381463	0.06015835	0.62228167
0.62548672	0.56081617	0.6296164
0.12707271	0.3225934	0.6402312
0.13416088	0.81179506	0.61768278
0.12698558	0.06699536	0.13685905
0.13961363	0.56685925	0.13555478
0.6335628	0.30144809	0.1101133
0.62755149	0.7959554	0.12328305
0.62463094	0.06207486	0.62565152
0.62340015	0.55891628	0.61942257
0.1258619	0.32116209	0.63036932
0.14007883	0.80680686	0.62277354
0.13169909	0.06644984	0.13243013
0.13675611	0.56618466	0.13589228
0.63153881	0.30018614	0.11778652
0.62220353	0.79405181	0.10689188
0.62605569	0.07348946	0.63159996
0.62971751	0.55814882	0.61200148
0.12957592	0.31791964	0.62966305
0.13297944	0.80769216	0.62680002
0.1501472	0.06673114	0.13494746
0.13958205	0.56654521	0.13880659
0.63771475	0.30157525	0.11850646
0.62169614	0.7996164	0.10295016
0.63330524	0.0778252	0.62629429
0.62100379	0.5603578	0.61446133
0.1333652	0.31651729	0.63521248
0.12586633	0.80934692	0.62996169
0.16274887	0.0639077	0.13246293
0.14371413	0.56812367	0.1422864
0.64729802	0.30272101	0.11516463
0.62833642	0.80755497	0.12049842
0.63352366	0.07172633	0.61236475
0.60193813	0.56176241	0.62119442
0.13043484	0.31669816	0.63690247
0.13069875	0.80763391	0.63314929
0.15663533	0.05651854	0.11828779
0.14796459	0.56709519	0.14526135
0.64963648	0.30374151	0.11734439
0.6342431	0.81074535	0.14112562
0.62656848	0.06103482	0.6056764
0.6052893	0.56136231	0.61804901
0.12094722	0.31639179	0.61987969
0.13526801	0.80538463	0.63163559
0.1420587	0.05407082	0.10631028
0.14458856	0.56355345	0.14644514
0.64158325	0.30519657	0.12543934
0.63456456	0.80819498	0.14410416
0.62310043	0.05528359	0.6072992
0.62844109	0.5569963	0.61221544
0.11455003	0.31550887	0.60808542
0.12750849	0.80708406	0.627189
0.13343278	0.05863512	0.11610989
0.12985969	0.55808578	0.14597665
0.63408209	0.30631398	0.12618854
0.63166977	0.80334442	0.13079385
0.62537425	0.05993255	0.60638762
0.64019034	0.555374	0.61852801
0.11771104	0.31458448	0.61536074
0.11488617	0.81259813	0.62557634
0.13201027	0.05841825	0.12507314
0.11714991	0.55558121	0.14522658
0.63685999	0.30656352	0.12030488
0.6306521	0.80282479	0.12159193
0.62522009	0.06585142	0.60492151
0.63024378	0.55826555	0.63044793
0.12455525	0.31359636	0.62147481
0.11578201	0.81866519	0.62876868
0.13198084	0.0535689	0.11212871
0.11257215	0.55940633	0.14360318
0.64455015	0.30679168	0.11968709
0.63350657	0.80754767	0.1268292
0.61781078	0.06104256	0.61228337
0.61900306	0.56003006	0.62699714
0.13038071	0.31223855	0.61608207
0.12248548	0.82074635	0.63051132
0.12561754	0.04971184	0.10267258
0.11414781	0.56106648	0.13691064
0.64095968	0.30593423	0.12177947
0.63195355	0.81124704	0.1312919
0.61491347	0.05383961	0.62047858
0.61884041	0.55948875	0.61849101
0.12747981	0.31130542	0.61607803
0.11902313	0.82041852	0.6183716
0.11687423	0.0506966	0.10706463
0.11775417	0.55321837	0.12218648
0.62676761	0.30496269	0.11635056
0.62169554	0.810002	0.11954905
0.61482519	0.05977105	0.61320494
0.62410665	0.56091977	0.61695835
0.11574342	0.31025486	0.62231793
0.11087245	0.81840955	0.6083825
0.11758818	0.05379213	0.11213011
0.11636402	0.54787918	0.10905596
0.61301404	0.30671643	0.1107139
0.61182181	0.80698774	0.11060293
0.61640288	0.07090539	0.60661743
0.61808952	0.56481105	0.62153558
0.10606977	0.30954903	0.62598712
0.11002115	0.81739483	0.61988449
0.12221864	0.05429908	0.10834836
0.11253933	0.54998382	0.10663806
0.60888866	0.30923742	0.1095747
0.61253332	0.80473358	0.1201089
0.62050888	0.07126631	0.61390778
0.60189121	0.56600553	0.62359174
0.10571928	0.31066598	0.62524589
0.11669187	0.81691354	0.63865339
0.12199802	0.05114123	0.10116702
0.11424866	0.55479088	0.11232487
0.61483811	0.30816521	0.11125948
0.62088973	0.80332065	0.12890472
0.62096746	0.05964613	0.62118946
0.58623583	0.56310517	0.61954279
0.1119187	0.31191603	0.62039454
0.12051281	0.81573939	0.63769438
0.11846933	0.05026143	0.10082551
0.12045324	0.55658592	0.11185286
0.61752612	0.30217041	0.11205559
0.62511483	0.80381867	0.12569539
0.61830923	0.05145812	0.61742466
0.59462488	0.56122255	0.6158704
0.11047026	0.30970242	0.61639101
0.1155419	0.81241678	0.62693264
0.11761607	0.05540146	0.11385855
0.12232854	0.55548217	0.10776932
0.61092267	0.30036382	0.11408734
0.62066263	0.80289819	0.11648341
0.61220535	0.05829592	0.6020568
0.62031095	0.56374937	0.61640725
0.10163613	0.30636807	0.61465914
0.1107821	0.81066783	0.62454003
0.12111494	0.06102548	0.12997707
0.11804044	0.55473271	0.11169435
0.6024094	0.30474963	0.11683481
0.61541624	0.80033092	0.11779595
0.61079955	0.06514916	0.58617034
0.62887562	0.56580643	0.61609354
0.10195321	0.30772087	0.61141938
0.11462599	0.81371911	0.62923158
0.12070628	0.06246849	0.13377472
0.11023869	0.55769111	0.12357194
0.60017204	0.30618854	0.11610308
0.61746218	0.80172454	0.12840886
0.61389689	0.06210204	0.58686078
0.61269284	0.563241	0.60948673
0.10245924	0.31421264	0.60907309
0.12120378	0.81463554	0.62746872
0.10952346	0.06081448	0.12820654
0.11286694	0.56200488	0.12697559
0.60329332	0.30155495	0.11295654
0.62634545	0.80554876	0.13038526
0.61783855	0.05904211	0.60691689
0.59374089	0.56089968	0.60852925
0.10149447	0.31981831	0.61017031
0.12338378	0.811315	0.60945446
0.0996311	0.06358845	0.11881995
0.12364306	0.56490027	0.11514522
0.60461619	0.29900272	0.10999024
0.63029854	0.80584407	0.12261265
0.62136273	0.06326513	0.61715379
0.59554282	0.56451089	0.61779067
0.10704266	0.31999463	0.61316821
0.12115061	0.80761897	0.59598488
0.10031397	0.06868603	0.10964035
0.12774816	0.56330337	0.10270005
0.60049121	0.30357911	0.1111648
0.62060138	0.80268094	0.12136375
0.62436562	0.06986907	0.60171523
0.60980523	0.5630726	0.62561342
0.10445133	0.31757028	0.61237799
0.12324131	0.80953356	0.60893733
0.10497529	0.0706085	0.10526668
0.12038882	0.55713271	0.10126591
0.59423286	0.30937549	0.11778469
0.61284265	0.80255235	0.13049024
0.61950513	0.06795181	0.59462545
0.62115121	0.55711971	0.6212796
0.09761328	0.31491063	0.60503742
0.12763069	0.81629572	0.62936156
0.10837655	0.06843234	0.10512671
0.11383592	0.55587123	0.10709977
0.59315798	0.30763009	0.12269116
0.62133385	0.80452021	0.13737918
0.61301771	0.05622082	0.61436496
0.61774226	0.55682556	0.61209017
0.09730249	0.31619224	0.59522908
0.13020659	0.81750071	0.6315144
0.11036772	0.06545851	0.10378601
0.11670982	0.56329855	0.11011454
0.60256896	0.30059884	0.11795705
0.62842197	0.80467456	0.13298351
0.61058846	0.05138501	0.63184977
0.61844251	0.56247754	0.61119757
0.10571936	0.31774481	0.59263049
0.13105228	0.81462122	0.6183698
0.11439517	0.06243336	0.10117176
0.12517775	0.56455037	0.10884662
0.60848151	0.29577878	0.10696916
0.62705099	0.80350559	0.12438591
0.61004754	0.05974394	0.62379514
0.63121184	0.56748428	0.6175805
0.11763253	0.3173253	0.59946937
0.13131698	0.81657466	0.60970797
0.1201502	0.05995245	0.10162555
0.12816114	0.55834876	0.10607505
0.60600631	0.29719391	0.1071927
0.62276306	0.80168137	0.12162753
0.61236454	0.0642641	0.60458609
0.64121048	0.56408774	0.61878424
0.12392485	0.31621982	0.60762193
0.1295038	0.82201228	0.62180186
0.12598583	0.05970053	0.1075894
0.11731647	0.55622157	0.10651676
0.59950224	0.30258885	0.11442456
0.62269395	0.80071561	0.12639642
0.6144019	0.06219243	0.60380503
0.63369067	0.55835671	0.61824283
0.11839069	0.31604031	0.60911752
0.12469572	0.82440019	0.6426162
0.12737487	0.06042676	0.11396285
0.10141315	0.56060003	0.10930779
0.59976958	0.30608204	0.11336336
0.62540336	0.80204227	0.12819651
0.61134061	0.05876431	0.62412817
0.61594865	0.55884708	0.6236581
0.11259369	0.31761119	0.60970198
0.12026161	0.82231926	0.64940679
0.1241185	0.05831839	0.1098067
0.10711682	0.56285059	0.10904289
0.6111389	0.30460139	0.10375432
0.62504939	0.8040843	0.12317699
0.60916382	0.05670624	0.6424473
0.60572077	0.560464	0.63120848
0.11870311	0.32089507	0.61945817
0.11334186	0.81880808	0.631444
0.12248337	0.05465118	0.10365714
0.1194279	0.56041447	0.10532357
0.6230947	0.30111109	0.10004759
0.61961486	0.80477683	0.11832797
0.60927316	0.05684745	0.64080387
0.61945493	0.55780132	0.62825981
0.12543381	0.32438494	0.62239576
0.10476696	0.81748032	0.61269508
0.12569869	0.05358498	0.11263013
0.11939222	0.55999428	0.10522068
0.62497323	0.30346596	0.10580533
0.61152744	0.80412639	0.12028839
0.6110523	0.05793297	0.62988245
0.63319899	0.55376485	0.6200389
0.12162407	0.32294266	0.61085311
0.10437079	0.81948473	0.61316806
0.13133215	0.05317934	0.12277917
0.10993709	0.56279143	0.11277995
0.61733174	0.30715603	0.11042013
0.60919953	0.80379676	0.12185013
0.61334832	0.05812152	0.6280079
0.62145639	0.55251929	0.61486065
0.11176166	0.31863461	0.60413216
0.11548786	0.8197376	0.6239198
0.12761964	0.0546889	0.12321462
0.10457642	0.56383395	0.12260883
0.61295496	0.3057634	0.10463761
0.61650218	0.80506103	0.117868
0.61590687	0.05852987	0.64405809
0.61042378	0.55578999	0.61082772
0.10979448	0.3171378	0.6084979
0.11910693	0.8169301	0.62215662
0.11669971	0.05688027	0.11920793
0.11372806	0.56228653	0.12712077
0.62130214	0.30030558	0.10215967
0.62656801	0.80586007	0.11369963
0.62038519	0.06083496	0.66125918
0.61663749	0.55905364	0.60947238
0.11938886	0.31834392	0.61573467
0.1138724	0.81664258	0.60783059
0.11105205	0.05988375	0.12289671
0.12582412	0.55942129	0.12878729
0.63604624	0.29661837	0.11276921
0.62913808	0.80295845	0.11422382
0.62778003	0.06473969	0.65413513
0.62756208	0.5577981	0.61005178
0.12722741	0.31798589	0.61975351
0.120851	0.81702415	0.61411571
0.1154242	0.06324819	0.13571631
0.1202797	0.55811156	0.12538432
0.63654248	0.30135014	0.12784693
0.62709372	0.79860705	0.11380212
0.63655325	0.06868128	0.62746576
0.62756001	0.55348684	0.61712744
0.12841562	0.31492421	0.61981644
0.1363283	0.81330325	0.62976019
0.11969663	0.06165819	0.14590347
0.1153671	0.55983553	0.11963105
0.63049921	0.31036817	0.13278658
0.6263246	0.79825022	0.10643335
0.64150718	0.06860263	0.61488566
0.61564829	0.55403025	0.62705124
0.13311149	0.31292499	0.61938205
0.14085088	0.81112033	0.62682493
0.11305108	0.05931266	0.14006292
0.12696416	0.56373486	0.12250033
0.63503758	0.31360667	0.13091933
0.62898298	0.80185359	0.09753511
0.64298438	0.06280779	0.63345626
0.6029877	0.56070174	0.6283287
0.13964539	0.3146981	0.62218936
0.13415041	0.81657881	0.6101994
0.10535525	0.0620029	0.12993859
0.13862487	0.56421571	0.12672259
0.65076648	0.3110517	0.13057315
0.63119286	0.80530902	0.09630972
0.63838657	0.05782691	0.64871874
0.60822102	0.56626768	0.61673372
0.13593543	0.31620739	0.62913428
0.12825956	0.81680091	0.59959404
0.11711279	0.06701939	0.12162996
0.14014744	0.56094784	0.11948564
0.65444407	0.30739754	0.12878373
0.62952348	0.80822889	0.10145494
0.63671569	0.05620991	0.63667961
0.62336208	0.56368444	0.60786972
0.12670099	0.31409165	0.63524066
0.12358971	0.81302699	0.60060543
0.13536326	0.06789273	0.12846195
0.13590268	0.55933926	0.11955508
0.64286261	0.30842855	0.12596664
0.62819426	0.81027445	0.09984212
0.63835928	0.05794437	0.62544685
0.62720668	0.55844024	0.60968869
0.12937612	0.31014752	0.63926949
0.12694935	0.81503803	0.60558965
0.13592722	0.06311433	0.14290586
0.13508552	0.5584719	0.13112002
0.62620028	0.31250138	0.1286878
0.63038461	0.81152401	0.09650374
0.63990961	0.0628306	0.63462552
0.61622385	0.56377387	0.61400964
0.13879526	0.31083334	0.64202274
0.13302052	0.82071454	0.60906028
0.12355945	0.06141067	0.15102455
0.14196494	0.55823297	0.13616109
0.62720912	0.31109956	0.13239393
0.63260624	0.81331058	0.10704267
0.63913344	0.06646982	0.64394564
0.61334826	0.56992114	0.6096039
0.14058049	0.31627123	0.64434426
0.13475376	0.8215608	0.61101611
0.1164299	0.06752333	0.14503491
0.14803658	0.561532	0.12560445
0.64219458	0.30434784	0.13459263
0.63186155	0.81366288	0.12339716
0.63895706	0.06549956	0.63693007
0.63190418	0.56571788	0.60167364
0.13481437	0.31948939	0.64544866
0.12976661	0.81674949	0.61832075
0.12642058	0.0709572	0.13233542
0.14474516	0.56473047	0.1103877
0.64858995	0.30325671	0.13574513
0.6275207	0.81228813	0.12851826
0.64286928	0.06330392	0.61753291
0.64970576	0.56604522	0.60037557
0.1327673	0.31691507	0.64310021
0.12800016	0.81324073	0.62263695
0.13989374	0.06608195	0.13221275
0.13103864	0.56248049	0.10362583
0.64023142	0.30816591	0.13576479
0.62112474	0.81140578	0.117259
0.64710654	0.06569337	0.60810428
0.64649717	0.5710912	0.60938783
0.13843123	0.31410518	0.64118361
0.13115748	0.81513519	0.61977316
0.13826763	0.05928206	0.14250386
0.12453118	0.55786814	0.11397247
0.63064506	0.31157041	0.13125932
0.61771822	0.81154272	0.10893469
0.64574356	0.06865343	0.61299262
0.63160812	0.57402584	0.62158738
0.14598212	0.31521795	0.64260891
0.13252541	0.81996961	0.61751477
0.1293888	0.06158447	0.14276958
0.13276529	0.5574525	0.12826364
0.63252009	0.30705769	0.12977847
0.62186336	0.81145588	0.10830205
0.6437058	0.06713067	0.62510238
0.62763291	0.56887108	0.6288148
0.14770882	0.31950607	0.64433415
0.12426295	0.82366782	0.61841432
0.12984589	0.06742902	0.12906118
0.13604658	0.55916976	0.12335354
0.64181899	0.30113182	0.13288205
0.62486054	0.80975076	0.10905917
0.64173645	0.06284803	0.63012798
0.64165817	0.5627468	0.62858661
0.14272597	0.3233867	0.64152673
0.1110352	0.82456267	0.63046546
0.13902362	0.06514143	0.12486787
0.12736485	0.56178974	0.11224526
0.64005329	0.30124755	0.13737297
0.61770918	0.8080636	0.11156936
0.63701443	0.06206131	0.62391298
0.65394787	0.56113221	0.62864027
0.13747173	0.32220302	0.63520895
0.10735825	0.82289263	0.64660689
0.14518241	0.05722641	0.13811048
0.12380974	0.56482199	0.11691347
0.62779904	0.30474132	0.13946151
0.61242813	0.80826143	0.12379313
0.63085867	0.06673714	0.62272163
0.65463282	0.56338181	0.63586986
0.14282778	0.31954048	0.62997142
0.1154955	0.82203089	0.64818439
0.13716358	0.05189452	0.15286534
0.12890597	0.56905377	0.13387715
0.62612243	0.30631718	0.13983692
0.61703211	0.80915748	0.13813486
0.62757982	0.06925333	0.62851614
0.65079455	0.56452561	0.64141446
0.14643283	0.32128368	0.62641269
0.12785351	0.82555187	0.63523977
0.12685591	0.05508202	0.14923626
0.13206718	0.57160778	0.14202366
0.63295956	0.30360488	0.14149806
0.62558436	0.80788103	0.14316657
0.63140671	0.06474566	0.63350594
0.65050188	0.56360141	0.63865293
0.13986978	0.32547946	0.62410658
0.13901162	0.82449658	0.62377918
0.12635125	0.06582889	0.13545629
0.12978069	0.56975486	0.13182205
0.63119695	0.30101714	0.14463914
0.62718327	0.8047444	0.13906084
0.63569014	0.06183727	0.6390444
0.65316177	0.56374719	0.6376734
0.13274358	0.32566189	0.62609961
0.14229703	0.8205095	0.62477963
0.1356953	0.0738849	0.12673883
0.12620367	0.56577106	0.11813141
0.62397413	0.30255844	0.14242702
0.62287346	0.80338151	0.14102256
0.6317153	0.06450974	0.64151634
0.64924301	0.5660397	0.63483731
0.13516473	0.32052974	0.63447342
0.13615367	0.81888162	0.62773794
0.14231351	0.06962992	0.12929835
0.13164539	0.56433741	0.12764676
0.62280818	0.30786604	0.13588841
0.6226579	0.80561066	0.14810929
0.62406669	0.06526151	0.64371585
0.63852672	0.56656899	0.626431
0.1404078	0.31855564	0.64522979
0.13159605	0.81957722	0.62253805
0.13287015	0.06229784	0.13488503
0.14120494	0.56495424	0.14620975
0.62671547	0.3119667	0.12585154
0.62928897	0.80873302	0.14515179
0.61689375	0.06032506	0.64820715
0.6318681	0.56288947	0.61631327
0.1340052	0.32364432	0.64831152
0.13527323	0.82157362	0.61312163
0.11470298	0.06302123	0.13238031
0.14660775	0.56456225	0.14642236
0.62469738	0.31101591	0.11548304
0.6370125	0.80882895	0.13491387
0.61177686	0.05557274	0.64793142
0.6316341	0.55918272	0.61626196
0.12544568	0.33110412	0.64590657
0.14225988	0.82457522	0.61540548
0.11347498	0.06887942	0.12211189
0.14764306	0.56374291	0.13413051
0.61627712	0.30792086	0.11402625
0.64136615	0.80791866	0.13080265
0.60757724	0.05764427	0.63753409
0.63529444	0.56250509	0.62409058
0.12720401	0.32986062	0.64374109
0.14379117	0.8282705	0.62172298
0.12611306	0.07093321	0.11638976
0.14583563	0.56448744	0.13084249
0.60950594	0.30766492	0.11934717
0.64167612	0.81099875	0.13319262
0.606332	0.06290573	0.62921832
0.64050098	0.56875437	0.62941199
0.12935419	0.32164261	0.64661193
0.1374618	0.82922432	0.61764467
0.12486162	0.06624947	0.12511447
0.1432172	0.56368109	0.14200615
0.60902596	0.31133932	0.1151858
0.64261958	0.8132585	0.13408029
0.60873356	0.06410855	0.62621993
0.6433707	0.56938577	0.62721664
0.12122038	0.3171735	0.64957611
0.13678191	0.82716405	0.61158038
0.1110747	0.06052326	0.13273126
0.14040405	0.56144613	0.1524124
0.6136542	0.31383906	0.10298294
0.64776125	0.80937127	0.13015167
0.61109474	0.06182351	0.6189821
0.64044385	0.56688865	0.62543248
0.1113859	0.32122064	0.64349417
0.14705586	0.82375243	0.61409204
0.10547537	0.06184486	0.12640233
0.13605356	0.55845619	0.14631286
0.62069355	0.31448558	0.10132567
0.64846057	0.80408269	0.12462937
0.61567527	0.06014062	0.60841233
0.62988689	0.56826163	0.63225919
0.10780165	0.32154688	0.62865372
0.14974458	0.81874824	0.62029055
0.10965871	0.06674197	0.11822248
0.12691398	0.55671605	0.13521058
0.63064862	0.31187893	0.10877991
0.64153716	0.80415759	0.12192716
0.61725306	0.06360054	0.60477839
0.62346991	0.57218959	0.63902986
0.11314158	0.31558627	0.6129265
0.13704403	0.8128569	0.6272865
0.11458702	0.06211027	0.11996786
0.11940595	0.55798916	0.13385953
0.6427475	0.30681244	0.1118433
0.63960118	0.80895168	0.11968628
0.61718298	0.0699923	0.61572833
0.62913561	0.57118233	0.63536361
0.11813895	0.31503092	0.60464189
0.13464965	0.80971076	0.63643963
0.11460304	0.0542448	0.12450535
0.1179894	0.56179121	0.13869262
0.64588837	0.30895823	0.10877015
0.64749688	0.81133793	0.11541998
0.62453714	0.07292346	0.62132264
0.62847374	0.56289846	0.62127392
0.11930273	0.3196789	0.60623896
0.1437551	0.81282453	0.64523776
0.11339536	0.0546351	0.12624112
0.1236304	0.56440407	0.13735509
0.63276616	0.31312273	0.11147892
0.65355594	0.80843899	0.11305046
0.63427005	0.07010834	0.61540476
0.61325445	0.55764207	0.61346196
0.11824039	0.32257522	0.61300822
0.14490822	0.8180456	0.65028244
0.11709745	0.06014259	0.12384143
0.12756552	0.56222367	0.13032501
0.61777403	0.31070696	0.12148863
0.64685138	0.80594466	0.11515295
0.631391	0.07016425	0.61000537
0.60272317	0.56023051	0.62358061
0.11815286	0.32136082	0.6131372
0.13570032	0.81340547	0.65569696
0.12349612	0.06334957	0.114577
0.12392088	0.55887575	0.12709811
0.61272488	0.30852244	0.12969383
0.63669869	0.81058597	0.11778106
0.62035664	0.07367068	0.61312875
0.61310938	0.5648011	0.63856268
0.1230379	0.31858912	0.60511526
0.12816074	0.80647854	0.65983998
0.12814334	0.06246563	0.11302164
0.11905288	0.55908475	0.13064338
0.61442962	0.30922167	0.12873283
0.63134663	0.81723202	0.1168724
0.61861513	0.07223746	0.61718996
0.62004769	0.56347315	0.63957053
0.13110041	0.31596321	0.60319081
0.13168813	0.80980892	0.65706099
0.1270293	0.06066575	0.11796268
0.1208126	0.56065338	0.13340207
0.61011371	0.30941276	0.1217071
0.62642555	0.81427698	0.11611864
0.62435093	0.06819308	0.61368871
0.61169944	0.55892199	0.63131188
0.13579221	0.31671695	0.60785005
0.13873614	0.81745724	0.65023135
0.12377196	0.06319067	0.1148551
0.11933832	0.55935883	0.1286445
0.60267233	0.30860029	0.11715479
0.61556216	0.80544694	0.12385327
0.62744064	0.06737646	0.6050797
0.60311554	0.55794098	0.62893859
0.13422122	0.31879492	0.61027487
0.13681382	0.81649525	0.64693353
0.12689418	0.0667055	0.10214847
0.11504749	0.55921245	0.11992534
0.60858435	0.3061632	0.11874256
0.60909241	0.80257577	0.13483159
0.62935351	0.06615039	0.60715005
0.60254497	0.56137182	0.63540181
0.12968583	0.31752685	0.60804964
0.1224765	0.81209696	0.64533859
0.13867848	0.06469303	0.09396807
0.11212172	0.56170676	0.11955893
0.62359845	0.30394511	0.1245405
0.61121404	0.80918336	0.14048596
0.6296704	0.0614379	0.61691664
0.60644954	0.56430844	0.63548855
0.12552288	0.3134686	0.6086944
0.1167343	0.81636088	0.64190496
0.1432604	0.06167639	0.09971022
0.11248611	0.5636833	0.12252202
0.62401497	0.30488352	0.1268966
0.61629254	0.81384179	0.14009257
0.62726003	0.05976305	0.62123011
0.60940565	0.56559618	0.62151426
0.12049316	0.31052618	0.6162041
0.12188351	0.82110878	0.62910615
0.13711693	0.06325179	0.11587057
0.11672731	0.56385619	0.11781732
0.61039922	0.30503335	0.12127197
0.61917371	0.80800401	0.13509346
0.62503764	0.05933417	0.62262515
0.60712576	0.56522332	0.61225755
0.10878739	0.31136433	0.62412068
0.12856867	0.81973077	0.61338815
0.13158424	0.06668062	0.12146441
0.12410504	0.56256533	0.11420914
0.60012132	0.303309	0.12000725
0.62045188	0.79971823	0.13058581
0.62729661	0.05913696	0.62356239
0.60369627	0.56711204	0.61964626
0.0954862	0.3122739	0.62630914
0.12543192	0.81551512	0.60884766
0.13138642	0.06851886	0.1099606
0.12669167	0.5600679	0.12230908
0.61216028	0.30170467	0.1235031
0.62217911	0.7978413	0.1236373
0.62494413	0.05936181	0.62276376
0.60811259	0.56848745	0.6269499
0.09014563	0.31119055	0.62083356
0.11002196	0.81303481	0.6101167
0.12794029	0.06671738	0.10458081
0.11915542	0.55860282	0.13169099
0.6279219	0.30077452	0.12663287
0.6235072	0.80319832	0.12305185
0.61706751	0.05953423	0.61747663
0.62198395	0.5607905	0.62088116
0.08723475	0.31201261	0.61620073
0.10111246	0.81361511	0.60661036
0.12291707	0.06212868	0.12130033
0.11026132	0.56077025	0.12370268
0.62406343	0.30067132	0.12234405
0.62003328	0.80602485	0.12759277
0.61769071	0.05863265	0.61305166
0.62729589	0.55483998	0.6124259
0.08681471	0.31393763	0.62069663
0.10859344	0.81529527	0.59646823
0.11648915	0.05882729	0.13409713
0.10868109	0.56478205	0.11273949
0.61073717	0.30366354	0.11893504
0.61449588	0.80084147	0.12698142
0.63076876	0.0554021	0.61259345
0.6128525	0.55907593	0.61416037
0.09262911	0.31456613	0.62676967
0.10795301	0.81427765	0.59278429
0.10797812	0.06235644	0.12712046
0.11262713	0.56556896	0.11145674
0.61017474	0.30738272	0.11912366
0.61610555	0.79513167	0.11969759
0.6371277	0.05136512	0.62167356
0.60070849	0.56178817	0.6270661
0.10260223	0.31537932	0.62631345
0.09673085	0.81064901	0.59680961
0.10416818	0.06617179	0.11335618
0.11373532	0.56075372	0.113105
0.62337001	0.30623758	0.11930032
0.62063302	0.80049274	0.11795881
0.62850555	0.04994615	0.63083005
0.60930591	0.55699769	0.63307555
0.10964686	0.31663047	0.61627571
0.08741042	0.81032703	0.60395852
0.10750056	0.06328455	0.11140171
0.11194891	0.55593466	0.1049092
0.63358616	0.30100074	0.11462297
0.6207668	0.8083338	0.11951742
0.6128416	0.05205142	0.63180945
0.61816518	0.55020834	0.62494021
0.11643792	0.31659425	0.60836812
0.09156839	0.81434642	0.60758407
0.1094746	0.05686312	0.12162273
0.11397036	0.55557212	0.09068718
0.62615243	0.30046647	0.11252442
0.61575765	0.80491742	0.12126039
0.60594683	0.05268335	0.63224313
0.61094593	0.54836845	0.61711216
0.12559406	0.31690791	0.60824252
0.10032445	0.81743879	0.60774018
0.10072996	0.05462917	0.12209881
0.1151522	0.55790035	0.09235506
0.60889325	0.30482759	0.11494398
0.61357585	0.80121529	0.1167527
0.60979886	0.05056231	0.63472492
0.60691204	0.55083602	0.62066039
0.12788342	0.31994736	0.60415212
0.09454486	0.81657473	0.61059353
0.08949519	0.05570276	0.10619796
0.12130566	0.56008244	0.11797622
0.60707183	0.3049375	0.11591801
0.61787151	0.80249424	0.10908721
0.60823393	0.05186028	0.63473833
0.61137996	0.55155144	0.63359
0.12441164	0.32264362	0.59438656
0.08215785	0.81395902	0.62022619
0.09542275	0.05520396	0.09369029
0.12742408	0.55936849	0.13418017
0.62716509	0.2999018	0.11059004
0.60796615	0.80386367	0.10718068
0.59644634	0.0554739	0.62809664
0.61924399	0.54843857	0.64111029
0.12401144	0.3213355	0.59434256
0.08850007	0.81550563	0.631131
0.11259156	0.0537641	0.09662848
0.1236328	0.55602229	0.11728303
0.64430353	0.29569126	0.10395976
0.60109793	0.80281256	0.11482029
0.59194397	0.05381938	0.61627891
0.62441165	0.54475662	0.63027106
0.1307781	0.31614793	0.6046097
0.10403254	0.82024945	0.6324578
0.12290447	0.05397493	0.10760233
0.11512479	0.55589666	0.09823278
0.63820398	0.29595311	0.10514962
0.61281237	0.80068398	0.11969148
0.60563533	0.04842462	0.6070807
0.62095774	0.54513952	0.61175065
0.13580439	0.31184519	0.61666676
0.10826782	0.81998521	0.6199052
0.11360682	0.05441997	0.11677034
0.11726192	0.55575704	0.10309805
0.62608374	0.30152808	0.11833657
0.62121407	0.79900376	0.11561552
0.61675207	0.04689865	0.60951171
0.61023167	0.55019991	0.60829901
0.13931389	0.31158795	0.62025698
0.10123856	0.81444982	0.6128659
0.11216485	0.05557354	0.11576372
0.12824875	0.55132504	0.12049993
0.62747399	0.30439911	0.12721898
0.61565439	0.80237293	0.11151826
0.60368571	0.05149717	0.6169956
0.60255808	0.55358068	0.62038736
0.14067207	0.31740384	0.61855339
0.09885001	0.81196062	0.6246391
0.13012966	0.05671966	0.10951005
0.13288802	0.55263171	0.13258474
0.63934612	0.29693908	0.12556287
0.60842405	0.80670932	0.12187464
0.59441741	0.05931439	0.61862307
0.60429675	0.55043989	0.62131547
0.13891783	0.31930186	0.61871159
0.11290034	0.81392842	0.64160039
0.14371822	0.05501905	0.11368407
0.12614148	0.5566712	0.12641971
0.63520433	0.29225716	0.1253033
0.61078364	0.80795372	0.14038776
0.60019487	0.06128978	0.61450354
0.6060309	0.54686225	0.61116261
0.13340682	0.31417516	0.62256985
0.12509251	0.81363444	0.64087012
0.14221025	0.05189347	0.12966642
0.1144163	0.55698855	0.11877952
0.62372388	0.296261	0.13092384
0.61710655	0.80586085	0.14404349
0.61319626	0.05788285	0.61606256
0.60337165	0.5533584	0.60727899
0.12912334	0.30820484	0.62849786
0.1217234	0.81219083	0.6267703
0.13605613	0.05142237	0.13566561
0.10897897	0.55402188	0.12658697
0.63242469	0.30344711	0.13241199
0.61699965	0.80276527	0.14108016
0.62503626	0.05506018	0.61861841
0.60274257	0.56227991	0.61145122
0.12667496	0.30837541	0.63075208
0.11216308	0.81236983	0.62225393
0.13531075	0.05515453	0.1267534
0.11289521	0.55421132	0.14500622
0.65043726	0.30665488	0.12628041
0.60990319	0.79981064	0.14410294
0.63136075	0.05744559	0.61402439
0.61069522	0.56550234	0.61483622
0.12452563	0.30938654	0.62835647
0.11764103	0.81156605	0.63222477
0.13793641	0.0602047	0.1251775
0.11880672	0.56052949	0.14921897
0.65521616	0.3048149	0.11539219
0.6038591	0.79806276	0.15211326
0.63651862	0.06284285	0.60623614
0.62246822	0.56334712	0.61699849
0.12036118	0.30582219	0.62555414
0.13000168	0.80851677	0.63657652
0.13572426	0.05933628	0.13214232
0.11979044	0.56508033	0.13332543
0.64514529	0.30644559	0.11024348
0.60875182	0.79952092	0.15219709
0.64603417	0.0645876	0.60527881
0.62795113	0.56159254	0.61551448
0.11550306	0.30182555	0.62954875
0.14032511	0.8076066	0.61696548
0.12907149	0.05316689	0.13709204
0.10909737	0.56109483	0.12257372
0.63183927	0.31126756	0.11749653
0.62041668	0.80297531	0.13776286
0.65135606	0.06187663	0.61402285
0.62478102	0.56255436	0.61435211
0.11179042	0.30472931	0.64339884
0.14605125	0.810026	0.60015726
0.1221482	0.05092282	0.1301544
0.09996243	0.55532344	0.13042749
0.62098222	0.3116708	0.12617769
0.62281114	0.8046124	0.12200488
0.65055346	0.05834593	0.62412951
0.62337256	0.56398158	0.62104098
0.10736861	0.31204509	0.65569807
0.14566343	0.81221028	0.61017149
0.1201474	0.05776844	0.12175772
0.10636348	0.55433249	0.14008281
0.6121116	0.30658025	0.12606999
0.61426544	0.8044335	0.12579761
0.65241562	0.05994337	0.62869775
0.62958006	0.56403646	0.62967004
0.1032937	0.31458731	0.65379835
0.13574045	0.81207715	0.63395668
0.12585516	0.06751514	0.12525817
0.12087292	0.55866329	0.13464431
0.60487384	0.30240304	0.11843962
0.60740384	0.80572224	0.1436296
0.6553959	0.06275913	0.63154541
0.63812237	0.56154114	0.62772398
0.10461573	0.31148926	0.64248805
0.12953033	0.8128315	0.64211543
0.13170533	0.07052366	0.13717791
0.12122625	0.56277424	0.12169065
0.60109815	0.30268215	0.11838703
0.6117514	0.80653355	0.14226508
0.65405308	0.06012326	0.63537995
0.63806229	0.55940943	0.62336063
0.11208914	0.30987008	0.63396484
0.13357721	0.81560755	0.62781965
0.12977988	0.06798196	0.14577983
0.11532588	0.56323253	0.11292494
0.60378684	0.30690519	0.12661282
0.62475667	0.80484146	0.123976
0.64375631	0.05696083	0.6370878
0.63669584	0.55926234	0.62141755
0.11812816	0.3128494	0.63384323
0.13975073	0.8157046	0.61416596
0.11595837	0.06825159	0.14874714
0.1230596	0.56016722	0.11613699
0.61291197	0.31187868	0.12689141
0.62778097	0.8035192	0.10752567
0.6327689	0.05513696	0.63469808
0.64168846	0.55929015	0.62358732
0.11836575	0.31721018	0.63274659
0.13793753	0.8130722	0.61567328
0.11047101	0.07231161	0.14393084
0.13399614	0.56192612	0.12062595
0.62086475	0.3137344	0.11925239
0.62163243	0.808474	0.10193531
0.63012446	0.05399741	0.62915129
0.64124573	0.55714494	0.6294002
0.11896121	0.31691336	0.62124338
0.13081036	0.81134241	0.62945884
0.11948632	0.07388735	0.1383203
0.12565398	0.56711509	0.11577465
0.6175331	0.31296926	0.11634703
0.63101131	0.81253344	0.10492617
0.63058736	0.05554178	0.62703942
0.63763614	0.55556473	0.63384424
0.12642673	0.31440319	0.60883297
0.12501046	0.81415389	0.63029335
0.12103767	0.06804978	0.14434648
0.11208062	0.56746728	0.10845687
0.61244396	0.31105968	0.11860932
0.65118748	0.80769608	0.10690055
0.62967649	0.05846363	0.63283507
0.64064422	0.55538114	0.63229734
0.13257555	0.31538893	0.61498305
0.12868579	0.81841931	0.61642833
0.11454563	0.0608374	0.15713739
0.11241568	0.56317162	0.11291481
0.61890523	0.30969576	0.11950765
0.65444834	0.80657487	0.10236882
0.62900489	0.05852259	0.63662067
0.64186053	0.55762719	0.63040184
0.1305498	0.32121158	0.6263449
0.1349834	0.81965986	0.61002193
0.11761481	0.06538783	0.15707438
0.12787992	0.56391004	0.11953338
0.62559389	0.30942308	0.12070209
0.64041658	0.81072217	0.09909286
0.63033948	0.0594275	0.62945342
0.63674941	0.56189359	0.63367319
0.13200791	0.32480725	0.62538018
0.13192933	0.81815978	0.6237958
0.1266038	0.07566655	0.13550198
0.13369535	0.57102832	0.11845447
0.62118565	0.30901914	0.12750231
0.63104362	0.81331223	0.10358276
0.6279574	0.06456754	0.61788402
0.63449733	0.56617435	0.63721886
0.13978473	0.32412879	0.61612613
0.12410345	0.81769861	0.63939435
0.13140207	0.07718878	0.11478151
0.12815766	0.5729561	0.11346518
0.61847182	0.30765363	0.13793512
0.63488446	0.81032619	0.11811819
0.6202584	0.07016683	0.61594575
0.637541	0.56768809	0.63176606
0.14500395	0.32079961	0.61586153
0.12648169	0.81931864	0.63641028
0.13138366	0.06766735	0.11399908
0.12463975	0.57056801	0.11626018
0.62546358	0.3065108	0.1431586
0.64012176	0.80572488	0.13249416
0.61390786	0.07104815	0.62534261
0.64000965	0.5650545	0.61695518
0.1460028	0.31863947	0.6276549
0.13681013	0.82037982	0.62086572
0.13156842	0.06091174	0.12268376
0.13423808	0.57058419	0.12762731
0.63438743	0.30690316	0.13736025
0.63335698	0.8067087	0.13694671
0.61216364	0.06782571	0.63451815
0.63422721	0.56441441	0.60398279
0.14876626	0.3217191	0.64075268
0.13983906	0.81914505	0.61447646
0.13218437	0.06045305	0.12043596
0.14999753	0.57173321	0.13547326
0.63847923	0.30814962	0.12995502
0.62461358	0.81247813	0.13379524
0.61127194	0.06623421	0.63255563
0.6264305	0.56708495	0.60862462
0.1516941	0.32442875	0.63419068
0.12475355	0.81760648	0.61964006
0.13455148	0.06395207	0.11165086
0.15686139	0.57082851	0.13177168
0.63583423	0.30800603	0.12865436
0.626567	0.81662159	0.13289759
0.61186311	0.07183242	0.62486615
0.62597099	0.57027405	0.6265261
0.14520584	0.32206559	0.61945935
0.10669324	0.81896013	0.6306656
0.1392558	0.06537321	0.11504194
0.14961411	0.56731009	0.12691785
0.63991637	0.30786215	0.1308558
0.63318223	0.81841628	0.13674943
0.61252259	0.07719916	0.62738999
0.63073015	0.56984046	0.63240241
0.13498888	0.31976859	0.61732779
0.10423207	0.82395707	0.63060323
0.14272482	0.06253185	0.12809924
0.13519145	0.56316089	0.13280836
0.6470853	0.30897426	0.13104261
0.63245533	0.81908091	0.13284207
0.61502196	0.07361481	0.64450037
0.6365239	0.56759963	0.62576185
0.13532364	0.32270113	0.63093228
0.11536053	0.8263389	0.62193913
0.14044305	0.06176027	0.1368935
0.13791773	0.56019568	0.13771395
0.64943629	0.30945365	0.13032498
0.62789625	0.8156993	0.12298722
0.6204685	0.067445	0.65742141
0.63605457	0.56895565	0.63091817
0.13797068	0.32577638	0.64476189
0.12623718	0.8262688	0.61952481
0.13398465	0.06463392	0.12860543
0.15117367	0.56012742	0.13578545
0.64354428	0.30644521	0.13320773
0.62880901	0.80550563	0.11965334
0.62197965	0.0673161	0.65583351
0.62817662	0.572663	0.64219466
0.13123546	0.32522084	0.64296723
0.12594129	0.82648101	0.62866742
0.13309439	0.06483253	0.1163695
0.15542477	0.56344144	0.13121592
0.6344713	0.30210182	0.14042372
0.63327521	0.79736584	0.12381612
0.61569748	0.07350192	0.64549063
0.61897282	0.57416994	0.64273711
0.12054607	0.32451751	0.63220843
0.12068188	0.82646836	0.63986127
0.13709858	0.06199363	0.11912372
0.14599628	0.56550598	0.12612015
0.63930647	0.2999724	0.14549845
0.63679445	0.79529341	0.12869604
0.61500869	0.07315015	0.6415276
0.61822839	0.57029357	0.62992902
0.11781425	0.3254954	0.63093204
0.13271721	0.82515388	0.63466212
0.13198926	0.05948677	0.12863296
0.13704806	0.56433601	0.12595579
0.6515241	0.30175384	0.14325471
0.63400961	0.80055946	0.12927807
0.6240655	0.06704139	0.64903041
0.6234575	0.56385174	0.61949119
0.11834928	0.32620748	0.64627252
0.14981255	0.82388487	0.62380502
0.12435525	0.05956098	0.12999704
0.13727304	0.56089316	0.13146964
0.64936087	0.30569779	0.13889902
0.63005648	0.80578234	0.1312235
0.63714774	0.06354314	0.65028303
0.62556794	0.56527253	0.62251228
0.11775162	0.32436837	0.65871933
0.13895297	0.8261602	0.63006973
0.12579005	0.06098008	0.12968044
0.13634307	0.55747947	0.13036462
0.6325765	0.3073647	0.13713944
0.62805142	0.80546155	0.13573031
0.64538101	0.06666994	0.6360864
0.62567576	0.57337557	0.63108209
0.11513964	0.32114067	0.64991446
0.1191127	0.83158823	0.63645364
0.12990985	0.06088798	0.134454
0.12619896	0.55735044	0.12722124
0.62289536	0.30670049	0.13673967
0.62672922	0.80368208	0.13318634
0.64164132	0.06998399	0.62147138
0.62541023	0.57175328	0.63402323
0.11476058	0.31916763	0.63027171
0.11430741	0.83333711	0.63388035
0.12685532	0.06088253	0.1452691
0.113967	0.56077456	0.13139584
0.62581462	0.30690938	0.13589919
0.62635247	0.80611275	0.12268688
0.63377983	0.0669858	0.61725538
0.62450562	0.5613949	0.63315116
0.11736157	0.32049029	0.62274578
0.12414155	0.82989147	0.63701966
0.12036185	0.06268016	0.15469692
0.11264389	0.56217659	0.13816116
0.63140593	0.30823759	0.13346935
0.62933114	0.80915582	0.10801869
0.64011333	0.05795103	0.62067431
0.62802412	0.55822853	0.63519498
0.11895252	0.32299872	0.63047586
0.13170054	0.82255231	0.63852462
0.1217925	0.06170894	0.15066004
0.12301974	0.559322	0.13986629
0.62667455	0.30885359	0.13554077
0.63059692	0.80523446	0.09918632
0.64938889	0.05164512	0.62291861
0.63583108	0.56253322	0.63664888
0.11990183	0.32238581	0.63316873
0.1245355	0.81786048	0.62671071
0.12786423	0.05795664	0.13243783
0.13447279	0.5587987	0.134248
0.61384933	0.3070325	0.13853674
0.6227154	0.79828338	0.10221309
0.64112092	0.05485733	0.6213583
0.63010838	0.56444803	0.632537
0.12661026	0.31809934	0.619106
0.12111358	0.8173709	0.61408142
0.12773123	0.05534996	0.11926766
0.12604332	0.56129568	0.13037356
0.60600852	0.30256238	0.13380248
0.61768737	0.79969652	0.11616856
0.62664895	0.05631876	0.62231479
0.61536482	0.55908163	0.62539553
0.13981941	0.31441652	0.6053409
0.13716937	0.81747209	0.61306653
0.12326706	0.05809165	0.12460177
0.11235752	0.56395255	0.12344069
0.60888585	0.30016284	0.12937599
0.62195812	0.80716711	0.130641
0.62147778	0.05244914	0.62428484
0.61214951	0.54988297	0.62282697
0.14385579	0.3130358	0.60690462
0.14824749	0.81380858	0.6179019
0.11881368	0.06482228	0.12926468
0.11180728	0.56443506	0.11634116
0.61131959	0.30105652	0.12763844
0.63179251	0.80986497	0.12778993
0.62558232	0.05410486	0.61886389
0.62204639	0.54366066	0.62908882
0.13515041	0.31224606	0.61975735
0.13402758	0.81025246	0.61972616
0.11657987	0.06683863	0.12213123
0.11778891	0.56068421	0.11858952
0.60385031	0.30383958	0.12854779
0.63560621	0.80934007	0.11867188
0.62490721	0.06076387	0.60855613
0.62679892	0.54936587	0.63578091
0.12970348	0.31128188	0.62387212
0.11395773	0.80795587	0.61112681
0.1186429	0.06388064	0.1098985
0.12424229	0.55856295	0.1244645
0.59874324	0.30687129	0.12988894
0.63138262	0.80879273	0.11717262
0.61509317	0.06280849	0.603548
0.62265841	0.55763334	0.63608789
0.13124073	0.31065871	0.61142398
0.11671379	0.80579237	0.60294761
0.12633584	0.06203658	0.11035109
0.12697243	0.56207234	0.11959113
0.60969416	0.30741131	0.12375624
0.62712363	0.80377425	0.12591611
0.61097457	0.05612982	0.60907336
0.62530456	0.55636706	0.63245192
0.12479232	0.3107891	0.60462636
0.13098893	0.80347613	0.60564315
0.13152235	0.06029131	0.12294783
0.12209629	0.56532668	0.11110272
0.6225453	0.3051833	0.11599766
0.62744092	0.80046806	0.1310273
0.62220286	0.04978235	0.61647822
0.63939032	0.5505361	0.63167862
0.10309989	0.30978358	0.61476569
0.13840663	0.80251292	0.61796968
0.12641689	0.05654463	0.12908983
0.11740908	0.56196853	0.11383514
0.61813196	0.30275088	0.11379282
0.62712534	0.80254753	0.12395941
0.63029791	0.04856643	0.61437696
0.64848084	0.55206627	0.62907921
0.09395689	0.30934842	0.62056563
0.13731392	0.80247271	0.62147357
0.11583672	0.0538156	0.11605668
0.11881686	0.55440014	0.12688277
0.61488956	0.30272114	0.11436479
0.62391028	0.80243723	0.1188431
0.62860093	0.05131786	0.6043915
0.64219639	0.56022258	0.61913955
0.10298106	0.31023192	0.61949898
0.13891076	0.80287317	0.61104524
0.11308263	0.05435527	0.10218036
0.11853553	0.55163244	0.13174633
0.6251176	0.30545775	0.10768393
0.62267003	0.7991758	0.13139121
0.62736432	0.05508786	0.59981588
0.62985809	0.56191338	0.61613934
0.11755603	0.31055629	0.61835
0.14071378	0.80478201	0.60609444
0.12196874	0.05635573	0.10071357
0.11458312	0.55779913	0.12327316
0.63012598	0.30660248	0.09791708
0.62817766	0.8002819	0.14451134
0.63183732	0.05690314	0.60814881
0.61649461	0.55489825	0.62701175
0.12057084	0.30806495	0.62153172
0.13578497	0.80632659	0.61839423
0.12736872	0.05651875	0.11151899
0.11784732	0.55925878	0.11373734
0.61863598	0.30341382	0.09410339
0.6320059	0.80498822	0.13878363
0.63203586	0.05764632	0.61694009
0.60807793	0.55203564	0.63645999
0.10206079	0.30410657	0.62745899
0.1230322	0.80531952	0.63326712
0.12159421	0.05338461	0.11837615
0.13038066	0.55413363	0.11525572
0.60729112	0.30095595	0.10309545
0.62753355	0.8078505	0.12941546
0.62143921	0.06104217	0.61827027
0.60900115	0.55943921	0.63507245
0.08552549	0.30279396	0.62856005
0.10865449	0.80430025	0.62737232
0.11385097	0.04982108	0.10901304
0.13787913	0.5534987	0.12875231
0.6130206	0.3006818	0.1162883
0.62047754	0.80656171	0.13264996
0.61248519	0.06260005	0.61259131
0.60940326	0.56674706	0.62267325
0.09527664	0.30567637	0.62342232
0.10633577	0.80739529	0.61444861
0.11880239	0.04995788	0.10018904
0.13771235	0.55621449	0.1344983
0.62925871	0.30135418	0.11832003
0.62025315	0.80239912	0.14145291
0.61067848	0.05827972	0.60691022
0.60505988	0.56448087	0.61460979
0.11461306	0.30847472	0.6179481
0.11099301	0.81311097	0.62220379
0.12676022	0.05330926	0.10410397
0.1360298	0.55772843	0.12356674
0.64071316	0.30126209	0.10921797
0.61893832	0.79785508	0.14494162
0.61180787	0.05786678	0.60994238
0.60205316	0.55771387	0.61759914
0.11352547	0.30864804	0.61673373
0.11096577	0.81779289	0.63985592
0.12221604	0.05526144	0.10521828
0.1310757	0.55512932	0.11183512
0.63940861	0.29864515	0.10302628
0.6102003	0.79418418	0.14064782
0.60654987	0.06315619	0.61922665
0.60574993	0.56108618	0.6178851
0.09815454	0.30695623	0.6202642
0.10530203	0.81899596	0.63563948
0.10961084	0.05393016	0.09405459
0.1233656	0.55047134	0.12196093
0.63428844	0.29665858	0.1067084
0.60633641	0.79353853	0.13414296
0.59676162	0.06545021	0.61924724
0.61282879	0.56675239	0.6130288
0.09532348	0.30851099	0.62407531
0.10062442	0.81704802	0.6176508
0.10894779	0.05322734	0.0824639
0.11366821	0.54834238	0.13696805
0.62950906	0.29833402	0.11802146
0.61266336	0.79844918	0.13104326
0.5925579	0.05951097	0.60824658
0.61291775	0.56098998	0.61374045
0.11423979	0.31470512	0.62155426
0.10093033	0.81457448	0.61416491
0.11968744	0.05792768	0.08947872
0.10628104	0.55203267	0.13102867
0.61921833	0.29953349	0.11608881
0.62048747	0.80286698	0.13040041
0.60238917	0.0532098	0.60144381
0.60492914	0.55554841	0.61797012
0.1291836	0.31587051	0.61250511
0.0989239	0.81355104	0.62562753
0.12962331	0.06326704	0.10779389
0.10861796	0.55842011	0.11288312
0.60673616	0.29845703	0.09798038
0.62135383	0.80243784	0.13095173
0.61617766	0.05811099	0.60534428
0.60232792	0.55976048	0.61929021
0.11264025	0.31147759	0.60322829
0.09120029	0.81470825	0.63551044
0.12901304	0.06538446	0.11611356
0.11441218	0.56101247	0.10754547
0.60715935	0.29875576	0.10223351
0.61798908	0.79949594	0.12449862
0.61323919	0.06421081	0.60939348
0.60938591	0.56429859	0.61659025
0.09757617	0.31091757	0.60490172
0.08375468	0.81750246	0.63585022
0.12108305	0.06307601	0.10692929
0.11205943	0.5594742	0.11697973
0.61338245	0.3000879	0.12197939
0.61305992	0.79952016	0.11784084
0.5979997	0.05674787	0.61115706
0.61273765	0.56064353	0.61968905
0.11325111	0.31639793	0.60351048
0.08806176	0.81963734	0.63232683
0.12056417	0.05893019	0.10030597
0.10395462	0.55719934	0.12001701
0.6161739	0.29899236	0.12263673
0.6087365	0.80193899	0.12522108
0.59764414	0.0504556	0.60821057
0.60901082	0.55466295	0.62979668
0.13771337	0.32256275	0.5939931
0.10533015	0.81876525	0.63226277
0.12609624	0.05913357	0.10550347
0.09950349	0.5590687	0.10911378
0.61557271	0.29600662	0.11376251
0.60967519	0.79982593	0.13760268
0.6087071	0.05770543	0.61381308
0.61098827	0.55611064	0.63340189
0.13623678	0.32652982	0.58748526
0.12075238	0.81662327	0.63558664
0.11942747	0.06288197	0.11904226
0.09789722	0.56100846	0.10246114
0.61527477	0.29912568	0.11012012
0.61205179	0.79454483	0.13724576
0.61246667	0.06400433	0.61961566
0.61320556	0.56157166	0.62468498
0.11899452	0.32750444	0.59841849
0.12355115	0.81584756	0.63617222
0.10267609	0.06241087	0.13163141
0.09475043	0.56062808	0.11001502
0.617627	0.30755206	0.11486438
0.61470149	0.79637503	0.12133308
0.60421245	0.05911224	0.62155497
0.6115626	0.56243779	0.62069032
0.11827793	0.32410778	0.61630774
0.11552364	0.81687297	0.63273674
0.09331889	0.05554433	0.13684222
0.09051343	0.56190687	0.11930874
0.61791909	0.3128195	0.12395635
0.6183863	0.80478624	0.10885329
0.60782207	0.05575348	0.62471617
0.61089372	0.5566519	0.62368016
0.13198604	0.32409122	0.61711145
0.11161301	0.81681818	0.62757509
0.09972731	0.05239562	0.13492643
0.09239192	0.56147558	0.11882615
0.61148195	0.3112887	0.13074177
0.6198999	0.81267203	0.11338763
0.62884167	0.06245013	0.63090122
0.61373567	0.55401819	0.62920667
0.13189006	0.32460852	0.60137651
0.11467347	0.81595305	0.62426033
0.11876885	0.05471551	0.13319038
0.10529769	0.56133677	0.11134486
0.60306945	0.3069961	0.12553307
0.61620766	0.81574068	0.11700888
0.64420144	0.07149513	0.63532518
0.61608791	0.55991273	0.63922116
0.11643714	0.32379746	0.60139292
0.11795008	0.81869323	0.6230399
0.13660259	0.06026712	0.13341166
0.11975439	0.5628556	0.10731545
0.60761793	0.30608732	0.12000634
0.60402917	0.81716287	0.10559276
0.63033738	0.07107482	0.63841681
0.61798062	0.56287762	0.64009025
0.10425556	0.32156206	0.61860479
0.12048807	0.8234228	0.6207912
0.14010908	0.06260019	0.13282122
0.12849659	0.5648328	0.11135189
0.62157904	0.3098641	0.12596022
0.59722211	0.81735201	0.09820681
0.61024075	0.06115502	0.63821793
0.62158189	0.559999	0.62514048
0.1150556	0.32015264	0.63274432
0.12523626	0.82547038	0.61016205
0.13202626	0.06057217	0.12989248
0.13331461	0.56533257	0.12032756
0.62836435	0.31186195	0.13749851
0.60317247	0.81400311	0.1077401
0.60859996	0.05707069	0.64012428
0.62806681	0.55803135	0.61298545
0.13308586	0.32036663	0.63376163
0.13327429	0.82385805	0.60140163
0.13010781	0.05796507	0.12571035
0.13779526	0.5645297	0.12529384
0.62478072	0.30941774	0.13989614
0.61455617	0.80851728	0.12108863
0.62106529	0.06554365	0.64691463
0.63145563	0.56460666	0.61515949
0.13571907	0.32021223	0.62930922
0.13638359	0.82063883	0.60315048
0.13923979	0.05971196	0.124075
0.13965889	0.5648913	0.12621435
0.61880453	0.30780593	0.13479633
0.6194263	0.8046017	0.11816703
0.63657654	0.07285052	0.65245724
0.62775414	0.57274696	0.62296768
0.12444776	0.31648936	0.63086474
0.13178693	0.81752015	0.60902982
0.1435786	0.06502059	0.12382115
0.13602862	0.56688936	0.12993192
0.62020996	0.31104389	0.13307561
0.61888484	0.80408864	0.1044507
0.64270459	0.07096746	0.64697472
0.62593946	0.57235765	0.62915991
0.11973001	0.313913	0.63766432
0.12645641	0.81614804	0.61093773
0.13324054	0.06868554	0.12870837
0.12701231	0.56679757	0.13479771
0.62970099	0.31132633	0.14229574
0.62603688	0.80630561	0.10387131
0.63942539	0.06651018	0.63620441
0.63057626	0.56778416	0.62579147
0.12759255	0.31488546	0.64216693
0.12640582	0.81701999	0.6137186
0.11695218	0.06775231	0.13541964
0.12590604	0.56399879	0.13331841
0.63633034	0.30409152	0.15277243
0.63330816	0.80833735	0.11925332
0.6396751	0.06969739	0.63836649
0.63799544	0.56818888	0.61432736
0.13449118	0.31578859	0.64175109
0.1229692	0.81971992	0.61956433
0.11873767	0.06511054	0.13637567
0.13471527	0.56308756	0.12890029
0.64077798	0.30250649	0.13850184
0.62695812	0.80888589	0.1265412
0.64793544	0.07445194	0.64829395
0.64546688	0.57181724	0.60868539
0.13048683	0.31402015	0.64047024
0.11583878	0.82008389	0.6225044
0.13667422	0.07085014	0.13245417
0.13851764	0.56514128	0.12662779
0.65266196	0.30748935	0.12043088
0.61824173	0.81024671	0.11641366
0.65341904	0.0708168	0.64452778
0.64648712	0.57235465	0.61012555
0.12631121	0.31373447	0.64243998
0.10977046	0.81767148	0.62518815
0.14002504	0.0724973	0.13055664
0.13094505	0.56496678	0.12712299
0.65638873	0.31128273	0.11850692
0.6166986	0.81377911	0.10359343
0.64824635	0.06361903	0.63563073
0.64090187	0.56899401	0.61169676
0.13882696	0.31748668	0.64725582
0.11179956	0.81755284	0.63004557
0.12008149	0.06618906	0.13849142
0.13330473	0.56626077	0.12857289
0.65265153	0.31136354	0.13084601
0.62371416	0.81590959	0.10873401
0.63558264	0.06207057	0.63681451
0.638326	0.56892957	0.60652135
0.15012735	0.32046199	0.64868435
0.11776008	0.82081452	0.62978112
0.11475927	0.06593312	0.14893759
0.14931304	0.56930904	0.13570787
0.64438502	0.31312603	0.13657045
0.64003215	0.81355502	0.13189855
0.63067677	0.06361394	0.63349641
0.64429697	0.57348572	0.59758862
0.14465026	0.31750017	0.64404328
0.12160245	0.82203527	0.62377629
0.13019786	0.0704246	0.15221149
0.16070836	0.56804884	0.14522158
0.63952572	0.31812661	0.12864772
0.65110956	0.81048267	0.14152439
0.64318646	0.06442419	0.63020127
0.64764119	0.57619377	0.59380348
0.13408436	0.31369216	0.63524339
0.12053354	0.81958332	0.62148272
0.13216873	0.07110554	0.14404015
0.15444614	0.56332812	0.14546536
0.63502011	0.31922649	0.1209687
0.64546099	0.81237933	0.12416699
0.6478877	0.06099682	0.62849384
0.63781686	0.57126914	0.60055692
0.13564076	0.31598499	0.63120303
0.12026575	0.81545502	0.62575557
0.12066104	0.07270802	0.13408494
0.13524282	0.56270233	0.12562455
0.63016766	0.31527942	0.1211312
0.63456562	0.81644637	0.10454462
0.63180192	0.06043362	0.62845984
0.62871501	0.56248945	0.61102345
0.15100878	0.32129408	0.63358918
0.12533357	0.81484453	0.62573582
0.11386297	0.07248165	0.13574296
0.12410373	0.56847429	0.11495944
0.6296891	0.31248742	0.12260677
0.63727661	0.81674856	0.10184787
0.62751514	0.06494397	0.62598889
0.63098531	0.55705924	0.61523036
0.16387172	0.3225056	0.63864805
0.13236269	0.81700982	0.61390704
0.12014315	0.07086009	0.14800165
0.1279521	0.57298613	0.12728784
0.63185554	0.31307508	0.11877256
0.64325567	0.81343894	0.10791823
0.63505826	0.06671056	0.62019001
0.63316442	0.55678708	0.62362239
0.15546847	0.32289151	0.64495947
0.13892681	0.81892707	0.60407191
0.13153256	0.06794477	0.15176747
0.14355593	0.57170896	0.13368211
0.63257334	0.31522609	0.11266925
0.63864196	0.81049309	0.10202913
0.63469796	0.05803279	0.61815596
0.62511835	0.55842222	0.63587342
0.15231126	0.32338022	0.64004261
0.14340454	0.81997433	0.60973761
0.13673342	0.0653702	0.13893564
0.14616007	0.56972518	0.12122915
0.63087597	0.31694935	0.10955941
0.63189769	0.80967115	0.08678854
0.61953149	0.05042593	0.61736363
0.62397422	0.55783871	0.64421099
0.16179192	0.32411075	0.62890436
0.1472411	0.820477	0.61963512
0.13744296	0.06678589	0.13448623
0.13140186	0.57240713	0.1068975
0.631625	0.31530147	0.12081947
0.63568109	0.81089314	0.09589202
0.60669356	0.05621215	0.61496405
0.63561931	0.55404776	0.64482061
0.16088232	0.32662921	0.6258459
0.14628596	0.82146249	0.61896166
0.13643397	0.07062664	0.14955093
0.12374465	0.57715589	0.10813796
0.63728125	0.31123977	0.12803641
0.64671757	0.81145006	0.12433607
0.61103919	0.06399331	0.61752297
0.64379318	0.55281407	0.63767191
0.14067312	0.32692613	0.63304936
0.14406183	0.82268351	0.61229584
0.13561724	0.06989873	0.15513862
0.13720486	0.57637231	0.12046567
0.63724199	0.31017297	0.11740948
0.64988341	0.8091274	0.13676934
0.62539701	0.06220749	0.62421195
0.63554438	0.55883031	0.62738917
0.12119762	0.32279853	0.64043441
0.14783428	0.82102403	0.61303886
0.13648202	0.06553245	0.1405881
0.14340821	0.57097482	0.1284701
0.63239421	0.3081886	0.10886208
0.63904329	0.80795589	0.13389109
0.62937878	0.05579634	0.62662799
0.62741732	0.56422985	0.62513127
0.1135126	0.32132697	0.63520012
0.14909679	0.81447744	0.62354818
0.13212283	0.06586071	0.13236558
0.12938524	0.56860696	0.12184073
0.63613552	0.30300773	0.1090226
0.6203196	0.81189217	0.12638259
0.62210878	0.05700745	0.62433676
0.63433478	0.56286754	0.63316975
0.12005734	0.32394031	0.62587275
0.14335229	0.81293782	0.63066955
0.12428094	0.06955013	0.13493626
0.11553668	0.57082862	0.11579796
0.64372328	0.29806596	0.11753926
0.60569404	0.81103557	0.12394194
0.61369786	0.06542326	0.62657388
0.64185708	0.5603843	0.63173102
0.12751802	0.32552208	0.63206151
0.14340628	0.81891701	0.62590539
0.11841408	0.06539363	0.1338565
0.12207807	0.57128562	0.12791328
0.64979333	0.29807263	0.12827828
0.61242738	0.80372464	0.12999006
0.61671022	0.06942554	0.62604806
0.63169902	0.5617856	0.62330031
0.12444415	0.32257529	0.64457152
0.14992109	0.82113497	0.61595973
0.11420184	0.05650377	0.12369964
0.13671217	0.56629281	0.14882345
0.65074979	0.30283097	0.12531929
0.63275243	0.79897453	0.13904953
0.6269227	0.06671535	0.62127878
0.62139943	0.566274	0.62050701
0.11215387	0.31430893	0.63840065
0.15239896	0.81920924	0.61724298
0.11158339	0.05029645	0.11795102
0.13818703	0.56113073	0.15617481
0.64641618	0.30425453	0.11162688
0.63157617	0.79947026	0.14413471
0.62651043	0.06043123	0.62513281
0.62588073	0.56717241	0.62678028
0.11024598	0.30838221	0.61912283
0.14535842	0.81971629	0.63051304
0.11046469	0.05427805	0.11879714
0.12404273	0.5605801	0.14444938
0.64163266	0.30271974	0.10003903
0.61765474	0.7997525	0.14067541
0.6153559	0.05938909	0.63294458
0.64028645	0.56198425	0.62939447
0.11853892	0.31423881	0.61014785
0.1301847	0.82351416	0.6391508
0.11365967	0.06211828	0.11872128
0.11874669	0.56094222	0.12797499
0.63252399	0.30261927	0.10379489
0.62013573	0.80012245	0.13495467
0.61202583	0.06228563	0.63873093
0.65209385	0.56015888	0.62288784
0.11966589	0.32127447	0.61747398
0.11847544	0.82355308	0.63724684
0.11942019	0.06081142	0.11485351
0.12753205	0.55765884	0.13042299
0.62092634	0.30268546	0.11899901
0.63149985	0.801325	0.13274475
0.62047784	0.06166046	0.62991182
0.65051106	0.56271484	0.61855663
0.11328004	0.31782637	0.62578231
0.11637739	0.81906263	0.63547317
0.12254556	0.05421039	0.11027573
0.13002032	0.55313422	0.13723762
0.6170763	0.29986322	0.12934258
0.63397364	0.80265642	0.13619178
0.62676211	0.05742189	0.61993215
0.6356301	0.56719325	0.62213294
0.11430487	0.31052932	0.62236099
0.1179543	0.81657155	0.63969513
0.12335832	0.05617822	0.10522237
0.1204461	0.55195863	0.12578577
0.61148186	0.2944316	0.12739389
0.62632274	0.80243297	0.14057068
0.62191309	0.0566874	0.61946113
0.6189666	0.56854173	0.6255554
0.12243523	0.30975133	0.61025162
0.11647439	0.82064238	0.64659672
0.1301315	0.06404262	0.10439087
0.11131517	0.55289133	0.1087105
0.60837926	0.29412793	0.12466918
0.62519527	0.80199272	0.1406496
0.61412916	0.06065032	0.62280132
0.61787249	0.56364247	0.62586331
0.12368152	0.3161674	0.61018692
0.11023832	0.82281282	0.64877207
0.13942303	0.06444248	0.11045169
0.11350228	0.55033921	0.11141296
0.60894561	0.30044187	0.13446699
0.63604361	0.80201605	0.13711199
0.62003897	0.06437759	0.61701126
0.62445494	0.55842898	0.62844848
0.11620621	0.32063705	0.62218104
0.10688419	0.81872047	0.64551945
0.14040336	0.05605197	0.11297878
0.1234719	0.54585971	0.12137414
0.60387693	0.30219902	0.14808074
0.63949578	0.80230404	0.13281136
0.62593602	0.06598686	0.60553034
0.62378726	0.56239008	0.63644247
0.11302553	0.31458754	0.62712936
0.11041717	0.81444457	0.64770855
0.13337104	0.05172075	0.10105039
0.12858567	0.54820978	0.12336352
0.59542333	0.2973653	0.14699337
0.62358642	0.80213134	0.13237629
0.62124461	0.06477043	0.59935772
0.61474763	0.56839562	0.64347986
0.11572105	0.31271637	0.61640923
0.11696671	0.8162011	0.6463489
0.12521156	0.0571436	0.09086093
0.12673427	0.55195145	0.11523414
0.59690995	0.29505979	0.13496782
0.61099764	0.80434553	0.12688292
0.61640168	0.06342343	0.60364801
0.61176553	0.56678615	0.64002166
0.113469	0.31979284	0.6011051
0.11730844	0.82087692	0.62981089
0.11988518	0.06230144	0.09407277
0.11919941	0.55299885	0.11021651
0.60761923	0.29952816	0.1253932
0.61614773	0.80440114	0.11458636
0.61726446	0.06385824	0.61707267
0.61498794	0.55783247	0.63024688
0.10334649	0.32477857	0.59816898
0.10793096	0.82387444	0.61271626
0.12067403	0.05626262	0.10242546
0.11380715	0.55558513	0.11660379
0.6081332	0.30620367	0.12681067
0.63039372	0.80250901	0.10758386
0.6269167	0.06215583	0.62272731
0.61249879	0.55079129	0.62531657
0.0948706	0.32121373	0.60677963
0.10393752	0.81984196	0.61119877
0.12006257	0.0487298	0.09833869
0.11470731	0.56112152	0.12797623
0.60060228	0.31035291	0.12883172
0.63879443	0.80350001	0.11433504
0.63761153	0.05953015	0.61516559
0.60071477	0.55211645	0.62624871
0.09822624	0.31380762	0.60888979
0.11670037	0.81053687	0.61831541
0.11691739	0.05042837	0.09341238
0.11647184	0.56547677	0.12880795
0.5954613	0.30800876	0.12205722
0.63368681	0.80452651	0.12847074
0.63982476	0.05902709	0.61552515
0.595266	0.55909683	0.62469267
0.10936521	0.31101411	0.59704416
0.12629026	0.81012313	0.62329545
0.11498964	0.05934193	0.10184271
0.11201046	0.56426084	0.12300237
0.59725205	0.30737997	0.1061761
0.62297641	0.80392149	0.13864084
0.63203466	0.06072459	0.62412557
0.59953029	0.56235436	0.61399559
0.11552501	0.31822885	0.58964877
0.1247346	0.8178205	0.61996294
0.11682854	0.06389149	0.11371112
0.10349594	0.56162215	0.12072637
0.60265878	0.31165472	0.10377315
0.62350198	0.80409984	0.13767218
0.6225255	0.06210026	0.63259645
0.60491226	0.55989067	0.60917907
0.11767081	0.32438473	0.60364946
0.12387405	0.81806013	0.61299472
0.1185336	0.05930541	0.12002771
0.09784214	0.56175877	0.12604794
0.60476039	0.31609718	0.11281753
0.63274304	0.80699642	0.13239082
0.62119637	0.06040227	0.62927175
0.60759591	0.55773205	0.61799078
0.12192618	0.3184548	0.62171597
0.12863966	0.8104318	0.61401624
0.11432999	0.05033146	0.12055899
0.1010203	0.56368439	0.12947107
0.60413513	0.31582381	0.10858534
0.62403358	0.80724747	0.12957349
0.6210082	0.05812675	0.61786918
0.61068078	0.56327495	0.62603723
0.12481745	0.3120022	0.62542965
0.13144118	0.81127726	0.62332111
0.10924417	0.04732524	0.11255262
0.10483757	0.56463988	0.12491807
0.61010623	0.31229867	0.09222515
0.60694321	0.80520083	0.11962995
0.61737562	0.05635465	0.61289528
0.61746359	0.57115181	0.62383719
0.11997242	0.31618826	0.61818763
0.12328553	0.82254541	0.62722314
0.10997755	0.05524646	0.10654037
0.098034	0.56403051	0.1206197
0.62369365	0.31014227	0.08496092
0.60799232	0.80500962	0.10420713
0.61356337	0.05702038	0.62427739
0.62281823	0.57032785	0.61664471
0.11581637	0.32401876	0.613632
0.11317593	0.82624936	0.62245133
0.12017377	0.06659281	0.10816778
0.09131793	0.56158219	0.12098513
0.6316799	0.30912438	0.09546495
0.62691307	0.80763902	0.09546036
0.61226053	0.06048611	0.63226671
0.60967681	0.5616262	0.61288203
0.11525365	0.32466102	0.61893491
0.11968505	0.81854055	0.62008694
0.12077257	0.06854217	0.11586699
0.09935565	0.55980401	0.11899311
0.62676469	0.30452216	0.10882999
0.63408265	0.80926761	0.1034967
0.61554131	0.06363308	0.61729424
0.59718592	0.55762047	0.61419618
0.11603694	0.31733336	0.62531386
0.12918377	0.81361924	0.62402504
0.11432235	0.06033956	0.12053916
0.11150033	0.56075932	0.11639475
0.61711242	0.29896922	0.11210419
0.62483279	0.81055937	0.11808422
0.62106613	0.06406517	0.61230589
0.6089475	0.5623113	0.61490747
0.12110793	0.31261674	0.62073206
0.13277085	0.82017425	0.63512086
0.11492543	0.05792982	0.11612578
0.11338662	0.55935091	0.11862199
0.61882382	0.29981517	0.11088868
0.61059106	0.81053863	0.11855427
0.61976623	0.06148494	0.62092195
0.62386655	0.56348896	0.61299234
0.12600027	0.31550469	0.61103182
0.12972251	0.82465628	0.64174476
0.12467547	0.06270807	0.11288398
0.10536183	0.55615456	0.12295696
0.63206018	0.30605376	0.11355955
0.6042428	0.80871614	0.11346345
0.6105219	0.06059467	0.6223902
0.62295119	0.55620353	0.61182584
0.12721587	0.32284679	0.61026923
0.12332838	0.82107455	0.63858286
0.12986269	0.06362591	0.12184786
0.10158403	0.55574656	0.12490828
0.63831332	0.30889508	0.12402532
0.60832699	0.808048	0.11294353
0.61218008	0.06342857	0.61574455
0.60885585	0.55253865	0.61385373
0.12669958	0.32124571	0.61888674
0.11999063	0.81515254	0.63607865
0.1262449	0.05720106	0.12876462
0.10758596	0.5576736	0.124094
0.63070021	0.30547356	0.14054047
0.60857768	0.80570598	0.11750113
0.63240418	0.06580668	0.60853575
0.600824	0.56035572	0.6198282
0.12116608	0.31277832	0.6257834
0.1196737	0.81411633	0.63954081
0.1217077	0.05389549	0.11643475
0.11935844	0.55941971	0.1191502
0.62237989	0.30459576	0.14475842
0.59757947	0.80009825	0.1205632
0.64828664	0.0645249	0.60377972
0.61792015	0.56931968	0.62843621
0.11209392	0.30853756	0.62181954
0.11336835	0.81726827	0.64078824
0.12187949	0.06291603	0.10562856
0.12537413	0.56021324	0.11420811
0.62327981	0.30922542	0.13481221
0.59643795	0.80008712	0.11914336
0.64675579	0.06369267	0.60389501
0.63996176	0.56795768	0.63396827
0.1051747	0.31408283	0.61321651
0.10057778	0.81865759	0.6339196
0.12564938	0.06944424	0.11313102
0.12521719	0.56024433	0.11393151
0.62440905	0.30764101	0.13117562
0.61295049	0.80321778	0.11569261
0.63453483	0.0670109	0.60684821
0.64029647	0.56381009	0.63510338
0.10683627	0.31579794	0.6119895
0.09467866	0.8142052	0.62234658
0.12588526	0.06431977	0.11609271
0.12711445	0.5614483	0.11418405
0.61612282	0.30120754	0.14079207
0.62741326	0.80290241	0.11611799
0.62537506	0.06891047	0.61127251
0.61961972	0.56594478	0.63191412
0.11470897	0.31188414	0.6194119
0.10320719	0.80878239	0.61515713
0.12094367	0.05927572	0.11075702
0.12964333	0.56372574	0.1097506
0.60356941	0.3008652	0.15252901
0.62633475	0.80419662	0.12205085
0.6218214	0.06559682	0.61661651
0.60450698	0.56756876	0.62943218
0.12086128	0.30800951	0.62498329
0.11280819	0.80979829	0.61325932
0.11606598	0.05948172	0.11323615
0.1300236	0.56246228	0.10867204
0.60442372	0.30741596	0.15481884
0.61680698	0.80889447	0.12986542
0.61689501	0.05990464	0.62352464
0.60545399	0.56223546	0.62877055
0.12719189	0.30853046	0.61970679
0.1043012	0.81689903	0.60466451
0.11483236	0.06292117	0.12111439
0.13071558	0.55795072	0.11946704
0.61932798	0.31111839	0.15017302
0.61657144	0.81215377	0.13559665
0.60603613	0.05648141	0.63400088
0.61389801	0.55771722	0.6260512
0.1379125	0.31265515	0.61276016
0.09078609	0.82104199	0.59031034
0.12115461	0.06254482	0.12868917
0.13177728	0.55656562	0.12998253
0.62851612	0.31040495	0.14141497
0.62300637	0.81131852	0.13645036
0.5980336	0.05937167	0.64276264
0.61782978	0.55886077	0.62513952
0.14122223	0.31643763	0.62199473
0.09673686	0.81766626	0.58333258
0.12071085	0.05653139	0.13347766
0.13487801	0.56112766	0.13060324
0.62508775	0.30898035	0.12806139
0.62763707	0.80761212	0.13912713
0.59927729	0.06465818	0.63701274
0.62052065	0.56395593	0.62597364
0.13362283	0.31734472	0.63867971
0.10521712	0.81179795	0.59464331
0.11077944	0.05720131	0.13916904
0.13795897	0.56535861	0.12737434
0.6219563	0.30967493	0.11672145
0.62371029	0.80610214	0.14434139
0.61291709	0.06433981	0.62709161
0.62801337	0.56605906	0.62686081
0.12408593	0.31714136	0.64080964
0.09860895	0.8123629	0.61144974
0.10082417	0.06085633	0.14502337
0.13468275	0.56619656	0.12525917
0.62536964	0.31032182	0.11288889
0.61283934	0.80851422	0.14317594
0.61783657	0.05638313	0.62837926
0.63870317	0.56231304	0.63152163
0.1205182	0.31749219	0.63835664
0.08878878	0.81787356	0.61709687
0.09870361	0.06448891	0.14735673
0.1242306	0.56746245	0.12276995
0.63188215	0.3068529	0.11690883
0.61104077	0.81041105	0.13288448
0.60787652	0.05371816	0.63828877
0.64911593	0.55887304	0.63623487
0.12567575	0.31581368	0.6386771
0.09854009	0.81907112	0.61147978
0.10635413	0.068903	0.1488647
0.11955416	0.56889216	0.12195244
0.63582516	0.30121347	0.12081474
0.6257349	0.81131269	0.12380237
0.60918155	0.05828719	0.64737899
0.65130866	0.55922418	0.63611345
0.1275576	0.31388115	0.63841824
0.12119073	0.81599436	0.60787637
0.11694536	0.07208884	0.15068518
0.13144503	0.56875169	0.12280958
0.63290686	0.30145434	0.11786402
0.63320264	0.81176419	0.12052438
0.623702	0.06273499	0.65145173
0.63982334	0.55931689	0.6312566
0.12341601	0.31527036	0.63754229
0.14291879	0.81465648	0.61048609
0.12057422	0.0718906	0.15038298
0.13780639	0.5683247	0.12562214
0.62329938	0.31003787	0.11528749
0.62561739	0.81048359	0.11967933
0.63509547	0.05994012	0.65251724
0.62057341	0.55567673	0.62596721
0.12340119	0.31653436	0.63552818
0.14369053	0.81642009	0.61673427
0.11935758	0.07101423	0.14367415
0.13258132	0.56715636	0.12549752
0.61974784	0.31591725	0.12263662
0.61900369	0.80563508	0.11990628
0.63400993	0.05354604	0.65068026
0.61619093	0.55256929	0.62288823
0.12991737	0.31500426	0.63213599
0.12676206	0.81753889	0.6238717
0.12863065	0.07174515	0.13579297
0.12676723	0.56541623	0.12588849
0.62664519	0.31238205	0.12625034
0.62266829	0.80416744	0.12082633
0.62778691	0.05201672	0.64877804
0.62349097	0.55512582	0.62385025
0.12765079	0.31368601	0.63404922
0.12518401	0.8172725	0.6275909
0.1424728	0.07100218	0.13991979
0.13176403	0.56614965	0.13275247
0.63009542	0.30603567	0.12044389
0.63632766	0.80886048	0.1203428
0.62879524	0.05707177	0.64714707
0.62833806	0.55531097	0.62522739
0.1177067	0.31483139	0.64103823
0.14008033	0.81520974	0.62839914
0.14909465	0.06989821	0.14903009
0.14223529	0.57030913	0.13551931
0.62634884	0.30483652	0.118096
0.64728689	0.8085026	0.1171771
0.63590982	0.05524779	0.6395895
0.62809915	0.55175415	0.62223412
0.12017067	0.31635987	0.64174347
0.14806489	0.81393985	0.63083425
0.14298492	0.06976345	0.15043887
0.14167612	0.5748539	0.12692674
0.62495857	0.30939164	0.12270301
0.64176398	0.80356094	0.11072453
0.63726203	0.04915292	0.62412484
0.62289172	0.55283594	0.61553992
0.13359565	0.31508427	0.62719023
0.14151131	0.8146222	0.63819653
0.1366423	0.0702382	0.14385488
0.12751709	0.57636901	0.11615494
0.62932202	0.31248026	0.12802729
0.63077241	0.80336645	0.10414424
0.62941572	0.04948741	0.6136138
0.61883944	0.55576433	0.61314592
0.13507226	0.31203426	0.61475231
0.13079133	0.81360578	0.64728647
0.14334821	0.07129469	0.13797412
0.12202298	0.57677306	0.11423583
0.63619694	0.31011039	0.12514517
0.63064518	0.81211047	0.10367427
0.62766062	0.05228621	0.62105712
0.62819238	0.55632606	0.61571019
0.12701018	0.31084223	0.61350944
0.1313864	0.81212185	0.65093999
0.15252714	0.07178933	0.13772881
0.1260519	0.57550847	0.12012533
0.63959288	0.30618986	0.11441649
0.64043633	0.81909097	0.10760143
0.63848559	0.0516062	0.63573757
0.63920281	0.555191	0.61611977
0.12495363	0.31422519	0.61974196
0.14407341	0.81218931	0.64548118
0.14960672	0.07225209	0.1382526
0.1293007	0.57195747	0.12682819
0.6364767	0.31140533	0.11394981
0.6395478	0.81608269	0.11105418
0.64283794	0.0519486	0.63101894
0.63781226	0.5529348	0.61119932
0.13343897	0.31837561	0.62806974
0.14960047	0.81205671	0.6363219
0.13944441	0.07137519	0.12878592
0.12359891	0.56796692	0.1328014
0.63398627	0.31869917	0.12641337
0.62545507	0.80799948	0.1083925
0.63326045	0.05349426	0.61771774
0.62637775	0.55438591	0.60804921
0.14496446	0.3209337	0.63203545
0.13876429	0.81034518	0.62950602
0.12809976	0.06829772	0.1213793
0.11348562	0.5649561	0.12996753
0.63510073	0.31720252	0.13164853
0.61732086	0.8055024	0.10935363
0.63118007	0.05449467	0.61399791
0.62627558	0.56200998	0.61220293
0.14588944	0.32289564	0.63135488
0.13290986	0.81268987	0.62881941
0.1230903	0.06519892	0.13107209
0.11164205	0.56212232	0.12886468
0.63900349	0.31368059	0.12204027
0.62106216	0.81132473	0.11627652
0.64238542	0.05682836	0.62035778
0.63781195	0.56610091	0.61966867
0.13614779	0.32377758	0.62852358
0.14120578	0.81780088	0.63471112
0.12827775	0.06313828	0.14200943
0.12328148	0.5579882	0.13414925
0.64207154	0.31024689	0.1166738
0.62933998	0.81778575	0.12515567
0.64893309	0.06078956	0.62025138
0.64377173	0.56443745	0.61712486
0.12817576	0.32241355	0.62581417
0.14906339	0.8190904	0.63937128
0.13552595	0.0630106	0.13542373
0.1295239	0.55579391	0.13735485
0.64134326	0.30619786	0.12363742
0.62997811	0.81860357	0.13027028
0.64363941	0.06395185	0.61104037
0.63261831	0.56406371	0.61082226
0.13173308	0.31997593	0.62762721
0.14768941	0.81965934	0.63243499
0.1353423	0.06404191	0.12156738
0.11906417	0.5583814	0.13141614
0.63805998	0.30543039	0.13002654
0.62240187	0.81447154	0.13274497
0.63603841	0.06569501	0.61312368
0.62476422	0.56986672	0.61373165
0.13625351	0.31857368	0.63015784
0.13353613	0.82083926	0.61901938
0.12792442	0.06450364	0.11707497
0.10890101	0.55986496	0.11708097
0.63900712	0.30855496	0.12589701
0.61860735	0.81296404	0.13087382
0.63518421	0.06757267	0.62578974
0.63705218	0.57243553	0.62580499
0.132942	0.31742615	0.62375646
0.11598286	0.81964072	0.61011694
0.131958	0.0658119	0.12579139
0.11299057	0.55838175	0.10771187
0.64025225	0.31176634	0.12181408
0.61922284	0.81537768	0.12477317
0.63631582	0.06894833	0.63150503
0.65123653	0.57084802	0.62964178
0.12709182	0.31508942	0.61407785
0.11269236	0.81847613	0.60959922
0.14109962	0.06314493	0.13358158
0.12077769	0.56181214	0.11625921
0.63693802	0.31258574	0.13153105
0.61838206	0.81380433	0.11952291
0.63379384	0.06912805	0.62779947
0.64395305	0.56592607	0.62520171
0.13157615	0.31415015	0.61853968
0.12285348	0.81751957	0.61133505
0.13385859	0.05966103	0.1328342
0.12262962	0.56930702	0.13026213
0.62650087	0.31512038	0.14942892
0.61702434	0.80820231	0.11793742
0.62750308	0.06940545	0.62140194
0.62961807	0.56207387	0.62213488
0.13823651	0.3159958	0.63072223
0.12640497	0.81725269	0.60667805
0.11876779	0.05980418	0.12658508
0.12280517	0.57027505	0.13420267
0.61504811	0.31910423	0.15870706
0.62028677	0.80500636	0.11383665
0.62535769	0.07097856	0.61569259
0.62742298	0.56006042	0.62655093
0.1366705	0.31808323	0.63525234
0.11640564	0.81861286	0.60150193
0.11408443	0.06357539	0.12689504
0.12650063	0.56316975	0.11998263
0.61769821	0.31951631	0.14933191
0.62636322	0.80706028	0.10778571
0.63119779	0.07135792	0.61234976
0.63424638	0.5600641	0.63511629
0.13156748	0.31794094	0.62903415
0.10939418	0.82069144	0.60555663
0.11854492	0.06515597	0.13277942
0.13312694	0.55607141	0.10661551
0.6284066	0.3146929	0.13084382
0.62726264	0.81020982	0.10756183
0.63125509	0.06726656	0.61759392
0.63743055	0.56156876	0.63973591
0.12715285	0.31841171	0.62231745
0.11573421	0.82549507	0.61176911
0.12330445	0.06391621	0.13382019
0.14251596	0.55669966	0.11235982
0.63177504	0.30811059	0.12484411
0.62538639	0.80818472	0.11418503
0.62634571	0.06155343	0.63280327
0.6370408	0.55978659	0.63583245
0.12491194	0.31905215	0.62111468
0.12413025	0.82769792	0.61177236
0.12101542	0.06470574	0.12192183
0.14684205	0.56490929	0.12715903
0.62621185	0.30350219	0.13059747
0.63147874	0.80160367	0.11773458
0.62277803	0.06109633	0.64448137
0.62686796	0.55788004	0.62575834
0.12568038	0.32050102	0.62125471
0.11957235	0.82084265	0.60885984
0.11247609	0.06298532	0.10773608
0.14214995	0.57216961	0.12807967
0.62478231	0.3022875	0.12995298
0.6389477	0.8014245	0.11150701
0.61751136	0.06400496	0.64630042
0.61686926	0.56080752	0.61800577
0.12960118	0.32178647	0.62166709
0.10864983	0.81437321	0.61328869
0.10847617	0.0613328	0.10985471
0.13883203	0.56893084	0.11498063
0.62939393	0.30162892	0.11410914
0.6362198	0.80474033	0.10126453
0.60768357	0.06135454	0.63965552
0.62326526	0.56720943	0.61913746
0.13347481	0.319834	0.61845822
0.10826056	0.81270336	0.63173049
0.11089756	0.06170065	0.12319434
0.13547656	0.56081512	0.10849614
0.63331331	0.29821296	0.10872021
0.63428897	0.80390888	0.1026225
0.59868013	0.05767437	0.63198164
0.63391721	0.57204819	0.62367626
0.14255874	0.31498569	0.61441531
0.11518734	0.81451655	0.64461678
0.11306386	0.0604216	0.12743781
0.12800139	0.56383273	0.11923927
0.62795573	0.29495287	0.11846707
0.6416994	0.80011373	0.11852437
0.60381234	0.05840539	0.63261651
0.62789966	0.57086088	0.62244715
0.14505216	0.31176586	0.6135785
0.11083889	0.8167447	0.63924418
0.11066116	0.05539291	0.11993205
0.12718315	0.57035317	0.13209539
0.62048356	0.29359431	0.12748802
0.64585385	0.80118334	0.13052574
0.62116945	0.06132703	0.63652277
0.62007623	0.5656931	0.61899261
0.13317857	0.31635554	0.61596501
0.0987676	0.81812387	0.63647449
0.11156858	0.05287047	0.1147788
0.1315717	0.56379006	0.12819078
0.62120499	0.29359096	0.12275459
0.63757799	0.80399412	0.12752142
0.62859716	0.06274876	0.63250854
0.61756536	0.56208727	0.62105089
0.11959925	0.32239647	0.62165462
0.09729007	0.8204245	0.64381556
0.11994833	0.05717332	0.11782878
0.12966148	0.55154005	0.11668087
0.62734562	0.29386726	0.1139914
0.62448269	0.80124719	0.12342964
0.61779711	0.06227744	0.6261174
0.61736104	0.56294137	0.62144202
0.11648858	0.32029302	0.6283801
0.11543342	0.82166226	0.64749034
0.12979544	0.0610688	0.12110097
0.12141074	0.55262148	0.11067746
0.62532536	0.29288409	0.11229042
0.62028946	0.79334857	0.13030185
0.60732292	0.06003666	0.63332399
0.61746623	0.56590014	0.61621303
0.11796924	0.3159584	0.63093894
0.13545286	0.8208579	0.63488584
0.13302988	0.05983036	0.11308071
0.11931587	0.56171399	0.12233207
0.62113281	0.29217849	0.11851316
0.6288824	0.78813866	0.13774902
0.61153343	0.05837417	0.63695665
0.61470149	0.56721089	0.61248425
0.11356485	0.31541368	0.62913217
0.14318164	0.81664652	0.61584307
0.1308708	0.05487644	0.09757743
0.12394353	0.5608706	0.13924073
0.6202954	0.29541535	0.11992984
0.63748502	0.78810984	0.13245763
0.62665868	0.05914992	0.62327883
0.61293001	0.56480477	0.61391397
0.10596663	0.31808766	0.62545664
0.13959399	0.8117543	0.61205094
0.12619161	0.04960786	0.10110461
0.12230224	0.55076062	0.1377301
0.62337918	0.29808552	0.1150601
0.62832746	0.79203534	0.1233209
0.63276024	0.06156462	0.61325734
0.61758913	0.56163919	0.61805485
0.10411145	0.31736594	0.62276592
0.13341357	0.81169534	0.62992856
0.12539622	0.04734469	0.11682246
0.11582544	0.54610071	0.11967351
0.61999261	0.29485702	0.11519653
0.61200586	0.79356693	0.1200506
0.62159769	0.0628724	0.61259641
0.61405274	0.56364517	0.6215025
0.10468826	0.31201425	0.62143358
0.13046131	0.81219236	0.64059842
0.13017526	0.05041244	0.12551389
0.11441598	0.54778369	0.1102326
0.61105201	0.29323721	0.12189355
0.61435392	0.7913838	0.12603198
0.60815184	0.06169872	0.61048543
0.60776211	0.56372227	0.62567908
0.10014865	0.30998854	0.62381054
0.13367221	0.81079039	0.62350069
0.13423301	0.05306009	0.11616771
0.12112394	0.54977876	0.1209279
0.60673694	0.29986528	0.12763638
0.62939994	0.79358217	0.1380516
0.61579382	0.05947611	0.60019725
0.60790159	0.55400594	0.63127749
0.09389417	0.31566166	0.62488743
0.14132796	0.8106891	0.60546316
0.13192354	0.05271345	0.10304819
0.12823857	0.54674904	0.13169316
0.6071575	0.30477366	0.13416729
0.63253978	0.7977538	0.14590849
0.63192447	0.06087045	0.58900067
0.6112323	0.54682516	0.63468968
0.09008656	0.32288483	0.6193866
0.14025714	0.81446905	0.60500629
0.12639681	0.05468631	0.09822222
0.12916833	0.5439024	0.12438679
0.611676	0.30362793	0.13069085
0.61887085	0.79774162	0.14077915
0.63372048	0.06469549	0.58890692
0.61505193	0.54978413	0.63133496
0.09148343	0.32325777	0.61447971
0.130312	0.81776268	0.61287044
0.12545935	0.05815597	0.10512118
0.12109128	0.5475782	0.10804475
0.61194196	0.30380066	0.11671248
0.61495773	0.79581829	0.12756506
0.61355404	0.0626191	0.59979932
0.61309065	0.55305873	0.62946705
0.09843635	0.31567094	0.62039225
0.13044719	0.81676112	0.6101849
0.12746989	0.05737988	0.11394931
0.11257809	0.55466349	0.1055651
0.6062252	0.30360579	0.11038318
0.62836858	0.79739185	0.12577595
0.60227676	0.05402325	0.60533965
0.61191534	0.55117198	0.63264342
0.10219725	0.30477715	0.62964546
0.13633508	0.81272617	0.59525363
0.12230323	0.05411759	0.11487177
0.11081869	0.55744807	0.12285957
0.60354121	0.3006543	0.11671348
0.63839458	0.80310655	0.13743449
0.61424617	0.05354191	0.59981553
0.61303859	0.54859322	0.63570111
0.10281254	0.29986132	0.62537888
0.13375444	0.81022678	0.59130814
0.10947207	0.05355642	0.10871169
0.1091394	0.55628409	0.13933441
0.61251185	0.29999574	0.11745193
0.62984602	0.8065358	0.14675467
0.62478172	0.05821126	0.60183434
0.61852403	0.55213632	0.63362437
0.10642509	0.30430558	0.61218145
0.12229377	0.81005311	0.60919196
0.10158657	0.05601593	0.10915686
0.10019641	0.55812887	0.13512569
0.61835285	0.30142375	0.11054054
0.61439123	0.80693335	0.13886698
0.61511172	0.05581656	0.61161285
0.62974585	0.55937668	0.6259287
0.1159473	0.30996374	0.59987587
0.11640017	0.80972495	0.63197142
0.10797452	0.05924016	0.12462536
0.0942924	0.5640771	0.11761532
0.61430438	0.3033732	0.1102901
0.60887668	0.80866477	0.12661785
0.60725642	0.04818114	0.61773563
0.63890402	0.56398496	0.61818809
0.12435264	0.3088787	0.60045186
0.11835312	0.80844899	0.63884654
0.11647548	0.05943993	0.13025593
0.09785362	0.56627009	0.12047095
0.60457907	0.30542743	0.11899204
0.61786978	0.81168567	0.1270717
0.60915823	0.05150412	0.61019132
0.64348879	0.56361434	0.61931416
0.1212237	0.30483389	0.61393895
0.11877	0.80970583	0.62655132
0.11263532	0.05892591	0.11123403
0.10873838	0.56266713	0.13661296
0.60299919	0.30663629	0.12101595
0.63070374	0.81399798	0.12682951
0.61987479	0.05954302	0.59924483
0.64007007	0.559578	0.63051863
0.11361094	0.30557807	0.61878705
0.12097157	0.81378828	0.60981035
0.10050133	0.06265858	0.10354659
0.11798684	0.55994996	0.13679635
0.60939902	0.30839797	0.11076075
0.63041773	0.81275693	0.11687786
0.62207135	0.0605732	0.60254433
0.62419441	0.55843902	0.6306454
0.11368645	0.31154087	0.60864193
0.12139844	0.81491842	0.61229151
0.09652504	0.06743459	0.1190916
0.11849404	0.56113343	0.11978125
0.61578461	0.31204437	0.10622353
0.62138158	0.80968466	0.10511788
0.61110446	0.05526679	0.62537525
0.61379418	0.56152967	0.62020677
0.12073115	0.31606415	0.60279724
0.11316781	0.81235411	0.62919885
0.10876065	0.06907777	0.13032201
0.11220315	0.5635049	0.10513376
0.62182613	0.3170719	0.11364651
0.61288848	0.81145197	0.10194581
0.60241179	0.04836926	0.64194393
0.62336579	0.56306772	0.62246036
0.12157317	0.31373805	0.61149313
0.10439703	0.80895354	0.62544568
0.12149634	0.06933271	0.12746255
0.11172507	0.5646382	0.10852325
0.61797346	0.31777458	0.12330239
0.61279511	0.81472015	0.11095819
0.60847324	0.04860662	0.63561849
0.62954954	0.56292556	0.63377196
0.11195332	0.3086424	0.62290014
0.10311985	0.80980672	0.61401501
0.1244983	0.07103641	0.1177732
0.11681459	0.56352431	0.13048423
0.60935265	0.31205345	0.12232618
0.62000524	0.814488	0.1229032
0.61845942	0.05863572	0.62216429
0.62157876	0.55938353	0.6402895
0.11070917	0.31214606	0.62583615
0.11295504	0.81400469	0.62325183
0.12166227	0.07267738	0.11420766
0.12003275	0.56173877	0.14394519
0.60571251	0.31207679	0.12181882
0.62344899	0.81187871	0.12842186
0.62150619	0.06675648	0.62528923
0.61393994	0.55459388	0.63311364
0.125557	0.32026412	0.62260337
0.12049991	0.81470649	0.63929511
0.11926178	0.07018308	0.12140234
0.12010213	0.5616277	0.13358651
0.61086913	0.31998925	0.13119562
0.62192701	0.81219261	0.12355742
0.61670451	0.06519334	0.63895151
0.61543157	0.55695207	0.61829218
0.13351236	0.32328928	0.62300998
0.11780331	0.81320847	0.64293643
0.12234075	0.06412295	0.12792315
0.12337884	0.56315689	0.11563019
0.6193659	0.3247684	0.1318817
0.61843023	0.81588133	0.1215547
0.61148429	0.06320583	0.64026496
0.62226926	0.56426704	0.61177608
0.12342909	0.31973921	0.62432677
0.11144382	0.81794816	0.63372897
0.12647219	0.06475271	0.11926789
0.13209597	0.56568887	0.11588439
0.62244655	0.32101321	0.11990658
0.61801182	0.81803878	0.12447749
0.60759262	0.07081091	0.62138391
0.62245374	0.56336868	0.62077156
0.11494663	0.3154228	0.62551412
0.11317712	0.8253724	0.63286742
0.12278933	0.06978912	0.10836318
0.13973525	0.56774907	0.12572622
0.61885812	0.31403106	0.10893112
0.61712649	0.81534948	0.12688746
0.61276437	0.07417317	0.61588278
0.6095439	0.55985071	0.62585846
0.1175691	0.31732845	0.63289616
0.11821059	0.82708609	0.65010304
0.11259259	0.0692053	0.11296594
0.13726452	0.56928977	0.12599281
0.61986614	0.31291508	0.10485497
0.61284218	0.81133596	0.12470471
0.62071308	0.06639458	0.63291361
0.59892969	0.56304422	0.61721874
0.12005708	0.32350313	0.63613827
0.11805522	0.82290173	0.65366645
0.10868086	0.06423633	0.12924263
0.12807938	0.57223345	0.11332414
0.62903328	0.31683252	0.10947795
0.61382977	0.81029928	0.12189362
0.61701289	0.06257606	0.65307568
0.60865064	0.57073358	0.60618293
0.1194223	0.32410855	0.63448619
0.11148485	0.81880311	0.63134277
0.12089048	0.0645162	0.13867963
0.12412047	0.57719124	0.1092613
0.63743072	0.31596188	0.12190878
0.61383533	0.81162596	0.12599411
0.60875791	0.06912918	0.65705868
0.62587912	0.57651553	0.60572442
0.12028631	0.3219896	0.6306418
0.10919494	0.81929714	0.61429601
0.13452202	0.0678731	0.13145829
0.12947696	0.58025328	0.12294111
0.63650196	0.30791725	0.13840293
0.61196607	0.81129221	0.13623972
0.6078986	0.07401821	0.64899858
0.63002056	0.57586536	0.61302257
0.1247004	0.3208836	0.62719192
0.12185074	0.82223834	0.61354314
0.13277366	0.07062689	0.12033402
0.13251656	0.5766513	0.13483847
0.63057092	0.30206027	0.14759714
0.61481827	0.80859128	0.14347979
0.6248287	0.07449778	0.63764878
0.61819065	0.57309779	0.61597216
0.1311174	0.32011367	0.6303166
0.12665485	0.82383454	0.6221137
0.1262761	0.06804543	0.11933203
0.12463534	0.57026416	0.12714516
0.63188029	0.3070633	0.14283088
0.6181954	0.80788543	0.14631586
0.63838549	0.07351541	0.63301982
0.61105818	0.57478033	0.61282754
0.1274066	0.32262827	0.63588429
0.11840596	0.82265147	0.63213346
0.12279	0.06428821	0.13149929
0.11614258	0.56770288	0.11326121
0.64294114	0.31424039	0.13575693
0.61775106	0.81274724	0.14403661
0.63178987	0.0733801	0.63505474
0.62578398	0.57877077	0.60860896
0.11847132	0.32707574	0.63570573
0.11887387	0.82224727	0.63183185
0.12562903	0.06430603	0.14176952
0.11980631	0.56729775	0.10447189
0.65152688	0.31345856	0.13633391
0.61437795	0.81685115	0.13244464
0.61182824	0.07344644	0.63783053
0.63445614	0.57797936	0.61194259
0.11715456	0.32828949	0.6299566
0.12284057	0.82635771	0.61985593
0.12444063	0.06691423	0.14565093
0.12861985	0.56646506	0.10936693
0.64558727	0.30571039	0.14168068
0.61136207	0.81499217	0.11576313
0.60872111	0.06918312	0.63789092
0.62796437	0.57148793	0.62173227
0.12816565	0.32778167	0.6240599
0.12462506	0.8317922	0.61215729
0.11613782	0.06666394	0.14428449
0.1300907	0.56553848	0.12045825
0.63220982	0.29957672	0.1376238
0.61263728	0.81123793	0.11077806
0.63067258	0.06248481	0.64061912
0.6222278	0.56452281	0.62804888
0.13860426	0.32935743	0.62392726
0.12716339	0.82834714	0.61791347
0.11388787	0.06104585	0.1433112
0.12376831	0.56407092	0.12526104
0.62684523	0.30598677	0.12902759
0.61658613	0.81038868	0.11560829
0.65200597	0.05896032	0.64530269
0.6250668	0.56170699	0.62861046
0.13572646	0.3323353	0.62952392
0.13300668	0.82475637	0.62974287
0.12342782	0.05481523	0.14672847
0.12125305	0.56261115	0.12232008
0.63200636	0.31621261	0.13359419
0.62168131	0.81100889	0.11197681
0.64292795	0.05868638	0.64298939
0.63259855	0.56325999	0.63241675
0.13136614	0.33177784	0.63280158
0.14035402	0.82882337	0.63117472
0.13375766	0.05896855	0.15195699
0.12790243	0.56055517	0.1157612
0.63769194	0.31421533	0.13587177
0.62852833	0.80962895	0.10211654
0.62104252	0.06056174	0.6432147
0.63359116	0.5639665	0.64266322
0.139797	0.32817801	0.62946285
0.14780587	0.83271923	0.61792292
0.13771383	0.06621035	0.14635732
0.1329074	0.55795373	0.12031618
0.63242668	0.30712282	0.12859005
0.63055895	0.80821841	0.10315776
0.63223672	0.06524329	0.64247644
0.62808284	0.5618396	0.65173514
0.15444623	0.32369809	0.63576838
0.14543059	0.83381021	0.6058543
0.13231754	0.06295831	0.13403191
0.12773785	0.5559727	0.13184801
0.62162496	0.30874915	0.13032996
0.62616379	0.80767366	0.10963312
0.65475961	0.06908754	0.63234334
0.62926457	0.5607	0.65431679
0.15369644	0.32199935	0.65117291
0.12905899	0.83315734	0.61164919
0.12545314	0.05726287	0.13119912
0.11926409	0.55710562	0.13094381
0.61591194	0.31712127	0.14428726
0.62332538	0.80579041	0.11420209
0.65203239	0.06843367	0.62443942
0.63608841	0.56234134	0.64756652
0.14231214	0.32476338	0.65944952
0.1149088	0.83303088	0.62168458
0.1278786	0.05812305	0.140092
0.11982582	0.56161273	0.11955689
0.6154592	0.31911009	0.1448321
0.62351608	0.80246133	0.11735782
0.63418164	0.06423804	0.62368341
0.64266311	0.56297499	0.63710791
0.14072225	0.32855499	0.65290342
0.11508805	0.83309174	0.61561654
0.13412934	0.06298304	0.14449235
0.12729354	0.56121005	0.11411873
0.62238214	0.30967252	0.13224661
0.62526347	0.80480477	0.11517838
0.63034447	0.06134018	0.62715483
0.64685827	0.56278248	0.63120288
0.14296439	0.32862394	0.63952204
0.12047388	0.827086	0.60678945
0.13273167	0.06501986	0.13633287
0.13350225	0.55956645	0.12590759
0.62931599	0.30432497	0.12855052
0.62639249	0.81275556	0.10972264
0.6500559	0.06372003	0.63172981
0.64794111	0.56520229	0.62740421
0.14201483	0.32251775	0.63402993
0.12094794	0.81605305	0.6096262
0.12690844	0.06194674	0.12433134
0.13603316	0.56276235	0.14373857
0.62528239	0.30932126	0.13600522
0.62701421	0.81315654	0.10340365
0.66730771	0.0684508	0.63477571
0.64783685	0.56782999	0.62281943
0.14055157	0.31831642	0.63392979
0.12089097	0.81024451	0.61789527
0.12622812	0.05895639	0.125462
0.13716456	0.566515	0.1507515
0.62121162	0.31530654	0.14130476
0.63116231	0.80731404	0.10279575
0.65682492	0.06884567	0.63229105
0.64657684	0.56460784	0.61911253
0.13735075	0.31643064	0.62578709
0.1250167	0.81202399	0.6183284
0.13476466	0.06364336	0.13640087
0.13498499	0.56497857	0.14141876
0.6219691	0.31414948	0.1386655
0.63496877	0.80710757	0.10900146
0.63987697	0.06582767	0.62357069
0.64014802	0.56268429	0.61726292
0.13032326	0.31234036	0.61414332
0.13234127	0.81300681	0.60932518
0.13939048	0.07141006	0.14262421
0.13497773	0.55961181	0.13095617
0.62526713	0.30702866	0.13281928
0.63505442	0.8127947	0.11802688
0.63898246	0.0682502	0.62296189
0.63274858	0.56802873	0.61385849
0.12879639	0.30822268	0.60714497
0.13499714	0.80813778	0.60302299
0.13535768	0.06872679	0.13489455
0.13979656	0.55697185	0.13134715
0.62533048	0.30088542	0.12705341
0.63191299	0.81469727	0.12312916
0.64967993	0.07288461	0.62784413
0.63308993	0.57245043	0.60829719
0.13749231	0.30785176	0.60977155
0.13203523	0.80402453	0.61539108
0.1386895	0.06327806	0.12027191
0.13733302	0.55981261	0.13811635
0.62150643	0.30247451	0.12110367
0.6280747	0.80959886	0.12547702
0.64848281	0.06896876	0.62342695
0.63795071	0.57236313	0.60605967
0.14304379	0.31044816	0.61916234
0.12816094	0.80686995	0.63611547
0.14506738	0.06593557	0.11469505
0.12977801	0.56656256	0.13744746
0.62900025	0.30610792	0.11476213
0.62939783	0.80447787	0.12640904
0.63427561	0.05939196	0.62286571
0.63779779	0.56869855	0.60537454
0.13232989	0.31181066	0.62747716
0.12680055	0.80958436	0.63726586
0.13905276	0.07197445	0.12080254
0.12809786	0.56902273	0.12898588
0.64818499	0.30393437	0.11275788
0.63749502	0.80533714	0.1264274
0.62946368	0.0557503	0.62598688
0.63047498	0.56626702	0.60217289
0.11736794	0.30835012	0.63136417
0.1301329	0.80305507	0.62206502
0.12944321	0.07154397	0.12816875
0.13442648	0.56583801	0.12293928
0.65742381	0.29877767	0.11298279
0.64167123	0.80816138	0.12522723
0.63426157	0.06089259	0.61696106
0.62495035	0.56697261	0.60535639
0.11318921	0.30712353	0.62827938
0.1376407	0.79842021	0.61468294
0.12632551	0.06542133	0.12680699
0.14008073	0.56141649	0.12563566
0.6486442	0.29782817	0.10687759
0.63633907	0.80910586	0.12154223
0.63323588	0.06553827	0.60071726
0.62424915	0.56692246	0.61874025
0.12020645	0.30969181	0.62140008
0.14073424	0.80161651	0.62117848
0.13448203	0.062201	0.11934247
0.14245373	0.56215715	0.13157423
0.63454921	0.30221495	0.09853417
0.63337185	0.8057877	0.12351826
0.62298782	0.060317	0.59919331
0.62213115	0.56212456	0.6303185
0.12617683	0.30945388	0.61533997
0.13391266	0.80992674	0.63192543
0.14266318	0.06536861	0.11393006
0.13914927	0.56740115	0.12983068
0.63027377	0.30755376	0.09568595
0.63565866	0.80038857	0.13288843
0.61467261	0.05298273	0.60451143
0.61513642	0.55663441	0.63145076
0.1266449	0.30619685	0.61033682
0.12757996	0.81604583	0.62981415
0.13728273	0.06726951	0.11241006
0.13027486	0.56986547	0.12033162
0.63549223	0.30773762	0.1001066
0.63709086	0.79896327	0.13536831
0.61718894	0.05226087	0.60006405
0.60604817	0.55644503	0.62501737
0.12412051	0.30378314	0.61092117
0.1287027	0.81539615	0.62111687
0.12027068	0.0623329	0.11082653
0.12642172	0.56655363	0.11030589
0.63565251	0.30289019	0.09500834
0.63034816	0.80435421	0.12820603
0.62677041	0.05602936	0.58459476
0.60126961	0.55527457	0.62310117
0.12507177	0.30644551	0.61872997
0.13566578	0.81364278	0.62294692
0.11441756	0.05550626	0.10576527
0.12962772	0.56232817	0.10897002
0.6269971	0.29705356	0.08685726
0.6223833	0.80305653	0.12198105
0.63022767	0.05687765	0.57703765
0.60807812	0.55113761	0.62807249
0.12672438	0.31403719	0.61955337
0.13543589	0.81714747	0.63291873
0.1235069	0.05404404	0.10091619
0.12851984	0.56096133	0.11373395
0.62053764	0.29583251	0.09306309
0.62748612	0.79374787	0.12050817
0.62517173	0.05102292	0.58761812
0.62759841	0.54764602	0.62830778
0.12653752	0.31807171	0.61393712
0.12682062	0.82182288	0.63544739
0.12467501	0.05532447	0.10765748
0.11596926	0.56158936	0.11847968
0.62074946	0.29846381	0.10475795
0.63385854	0.79401828	0.12089268
0.62086479	0.04556301	0.59855775
0.63434256	0.54645407	0.62088217
0.12161408	0.31427936	0.61407184
0.12200151	0.82160081	0.62814824
0.1142715	0.05504315	0.11767506
0.10603114	0.55951188	0.11889054
0.62435462	0.29950907	0.10875395
0.63295908	0.80058134	0.12209084
0.61764431	0.04589121	0.59932148
0.62355777	0.5475195	0.61432971
0.11316728	0.31065215	0.612374
0.12499213	0.81745478	0.6219506
0.10880056	0.05220716	0.11186378
0.11370706	0.55701643	0.11618487
0.61914744	0.29663778	0.11072026
0.63122362	0.80222099	0.12223177
0.60821255	0.05107302	0.59666613
0.61253337	0.54956414	0.61951022
0.10783032	0.31509477	0.60779064
0.12657567	0.81383953	0.62692917
0.1159194	0.04993799	0.09991277
0.12303872	0.55683819	0.11813416
0.60826059	0.29690746	0.11539389
0.6314492	0.79767609	0.12028128
0.60023868	0.0517439	0.60332171
0.61505251	0.54700114	0.62847633
0.11573291	0.3216786	0.6039598
0.12113188	0.81240842	0.63560919
0.12151267	0.05087748	0.10485153
0.11743469	0.55579092	0.13157775
0.60420781	0.30472833	0.12014141
0.62720743	0.79414211	0.12263396
0.6071923	0.0457433	0.6163988
0.62563961	0.54492201	0.63131664
0.12830138	0.32388062	0.60493663
0.11715121	0.81264002	0.63727895
0.12003377	0.05640902	0.1131666
0.10876295	0.55502799	0.14179537
0.603829	0.30918573	0.12453859
0.61683611	0.79596672	0.13274576
0.61757824	0.03984387	0.62303324
0.62390695	0.54774135	0.61899469
0.12233348	0.3192912	0.6103315
0.12201294	0.8127343	0.63118074
0.11792299	0.06008181	0.10968261
0.1107294	0.55611736	0.13556375
0.60501807	0.30525676	0.12333411
0.60793085	0.79964658	0.14009954
0.61671113	0.04538535	0.61756528
0.61273581	0.55443611	0.60651966
0.10238929	0.31472313	0.61480288
0.1320213	0.81301562	0.62609505
0.12277464	0.05728047	0.10166029
0.1111028	0.55681892	0.12272592
0.61011345	0.3000493	0.11616932
0.60726433	0.80019203	0.13754615
0.61226278	0.05859442	0.61587589
0.61594186	0.56175867	0.61288905
0.10116097	0.31552749	0.61420776
0.13826758	0.81316286	0.62656418
0.13048819	0.05598284	0.09520289
0.10439963	0.55388615	0.12040465
0.61574522	0.30241652	0.11508356
0.60924192	0.79718487	0.13255833
0.61541241	0.06511075	0.62544945
0.63311532	0.56456334	0.62789163
0.1209721	0.31752607	0.61109713
0.13173929	0.81305287	0.62937385
0.13173084	0.05663554	0.099144
0.10018319	0.55128728	0.12972524
0.61964947	0.30770441	0.12899719
0.61036254	0.79650126	0.13597482
0.62184696	0.06135589	0.6353299
0.64039827	0.55975283	0.6313305
0.12948462	0.3157507	0.6104774
0.11800715	0.81158822	0.62382492
0.12283115	0.05661437	0.10941497
0.10458705	0.55378859	0.13888458
0.62110697	0.30759704	0.14427987
0.6110332	0.79958103	0.14056787
0.62251528	0.06051158	0.63443404
0.63135291	0.55852764	0.62517623
0.11873073	0.31221608	0.61505711
0.11338463	0.81018672	0.61685985
0.11626265	0.05680739	0.11326865
0.11016745	0.5558329	0.13135369
0.61981597	0.30152585	0.14640318
0.61258504	0.80391401	0.13656005
0.61605125	0.07210585	0.6256285
0.62129087	0.56427188	0.62477188
0.1109056	0.31257809	0.6229394
0.1217945	0.81331755	0.61950334
0.12123972	0.0583293	0.10773686
0.11178038	0.55402756	0.11095392
0.61894764	0.29637835	0.13682665
0.6158636	0.80895372	0.13030967
0.61373396	0.07896782	0.62108835
0.62518548	0.56650197	0.62915422
0.11279485	0.31486659	0.6279063
0.1299424	0.81527106	0.62636179
0.12712015	0.05956061	0.09988785
0.11193806	0.55090896	0.10777022
0.62298556	0.2984754	0.13341891
0.61889639	0.8108206	0.12990081
0.61689433	0.07083706	0.62608543
0.63452216	0.56472846	0.62376459
0.11502925	0.31300637	0.62618875
0.12771767	0.81227618	0.62386555
0.12550368	0.06213089	0.09365126
0.11428941	0.54923301	0.11883322
0.62660024	0.30506886	0.14166831
0.62046076	0.80925097	0.13211769
0.6196428	0.06123581	0.62631522
0.63536728	0.56309018	0.61847741
0.11052728	0.31074163	0.62313147
0.12030302	0.80884917	0.61939955
0.11517907	0.06372926	0.08964074
0.11738754	0.55109932	0.12369995
0.62236864	0.3049553	0.14562165
0.62086457	0.80916775	0.13086276
0.62276186	0.06448559	0.61659637
0.62726765	0.56577765	0.62084039
0.10342923	0.31366485	0.62507312
0.11917961	0.81195535	0.62021794
0.10990373	0.0609192	0.09333838
0.11622397	0.55456223	0.11304643
0.61540767	0.30229495	0.13874843
0.62319163	0.81335481	0.12458154
0.62639379	0.07146539	0.60642855
0.6205241	0.57109259	0.62311545
0.10353233	0.31717804	0.62786784
0.12745715	0.8167413	0.62530299
0.11744641	0.05644061	0.10892811
0.11217167	0.55615817	0.10513524
0.61087826	0.30893616	0.12893588
0.62886362	0.81890223	0.1159754
0.62159539	0.06773071	0.60603379
0.62262748	0.57108673	0.62737865
0.10908012	0.31771358	0.62135297
0.12477601	0.81618839	0.62522538
0.12505412	0.05303645	0.11929568
0.11765224	0.55645479	0.11088207
0.60986101	0.31319584	0.12360557
0.63341084	0.81994854	0.10942754
0.61790172	0.06019139	0.61551079
0.62896178	0.56626083	0.63545555
0.11216236	0.31683566	0.61211612
0.11603172	0.81087442	0.6215162
0.11999569	0.05254449	0.11665605
0.13525857	0.55838675	0.12139596
0.60695808	0.30955608	0.12645206
0.63410971	0.81538524	0.10379271
0.62228903	0.06245288	0.62442519
0.63003168	0.56720672	0.64396709
0.10926155	0.31553951	0.60936685
0.11324094	0.81285409	0.62483109
0.11255615	0.05480002	0.1230886
0.14511142	0.56368346	0.12579099
0.60109492	0.30675325	0.13202819
0.63146673	0.81319163	0.10047642
0.62487661	0.06976003	0.62491312
0.62071174	0.57362171	0.64698445
0.1059565	0.31528407	0.62026126
0.12225224	0.82170024	0.63828997
0.11679151	0.05688258	0.13882026
0.13680354	0.56697365	0.12423595
0.59866368	0.31161549	0.1282999
0.62915067	0.81465392	0.10524414
0.62345641	0.07082892	0.62306872
0.61746774	0.57458912	0.63440444
0.10941761	0.31408523	0.63220095
0.13601775	0.8280768	0.64925019
0.12917737	0.05701248	0.14484957
0.12734317	0.56634802	0.12020392
0.60590599	0.31630607	0.11887154
0.62933763	0.81711529	0.11345264
0.61683803	0.06303487	0.62996664
0.61151783	0.56660046	0.61530283
0.11582625	0.31202802	0.63183129
0.13988353	0.82570535	0.64686467
0.12961723	0.05627594	0.13696833
0.13081245	0.564603	0.12496346
0.61827895	0.31214041	0.11760511
0.63285735	0.81354417	0.11722044
0.61478632	0.05719071	0.64012125
0.60196484	0.55975945	0.61996056
0.12011826	0.31165425	0.62387508
0.12276409	0.8206767	0.63378987
0.11748721	0.05752827	0.12373621
0.13388972	0.56576003	0.13486133
0.62645029	0.30690679	0.1177479
0.63395276	0.80629221	0.11551335
0.62096638	0.06339584	0.64235314
0.60295381	0.56415699	0.63768994
0.12088189	0.31519938	0.6234282
0.10172472	0.82133391	0.61928303
0.11201421	0.06149126	0.12222544
0.1219084	0.56973195	0.14227559
0.62665606	0.31047474	0.11322404
0.63149513	0.80324535	0.11380253
0.62753788	0.07138661	0.63605378
0.60613039	0.57288894	0.64096333
0.12140878	0.31973033	0.63446653
0.10489627	0.8227623	0.61570507
0.11888341	0.06434561	0.13127445
0.10865734	0.57162807	0.14068731
0.62137212	0.31794878	0.10670278
0.62767062	0.80800175	0.11617489
0.62533017	0.06962129	0.63560046
0.60013663	0.57514223	0.62693646
0.12687649	0.32086647	0.63845565
0.12019981	0.81790375	0.61944106
0.13112263	0.06469071	0.13727593
0.11351472	0.56935819	0.13443126
0.61933281	0.31830154	0.10392019
0.62646651	0.80599285	0.12028728
0.61631032	0.06363185	0.64236366
0.59790467	0.56885157	0.61840661
0.12890456	0.31759071	0.63012715
0.12142948	0.8137458	0.618538
0.13966062	0.06545492	0.13542646
0.12450563	0.56709895	0.13606605
0.62614278	0.30830208	0.11030241
0.62247494	0.79925444	0.12087877
0.61355649	0.06315935	0.64614641
0.60463358	0.56564069	0.62617201
0.12284721	0.32030813	0.62727521
0.1065394	0.81452817	0.61352841
0.14220567	0.06848425	0.13289297
0.12999739	0.56748019	0.15049591
0.63448488	0.29959655	0.1259805
0.6106841	0.79829816	0.11891779
0.61886885	0.06821588	0.64182857
0.61162669	0.56904774	0.63221612
0.11857339	0.33057722	0.63465468
0.10168073	0.82127303	0.60958584
0.141719	0.07194919	0.13585693
0.12376796	0.56701113	0.15327443
0.63384236	0.30059262	0.13741527
0.60518051	0.80376247	0.11807455
0.62476187	0.07260311	0.6330376
0.61086909	0.57123726	0.62051273
0.12196852	0.33185451	0.64238327
0.11148466	0.82530505	0.60853051
0.13804145	0.06952869	0.14160539
0.11373151	0.56333067	0.14016697
0.63252038	0.30710482	0.13445048
0.60774545	0.80884755	0.11936687
0.62114164	0.07145966	0.62820041
0.60797121	0.56591328	0.60839329
0.12491759	0.3245481	0.64049983
0.11276629	0.82149064	0.60812745
0.12898317	0.06736607	0.14107772
0.11476515	0.55940435	0.12720913
0.64042297	0.31076707	0.13080015
0.60955924	0.80844303	0.12032619
0.6144669	0.06759024	0.62922264
0.60766857	0.55950506	0.61848511
0.12508574	0.31747944	0.63132488
0.10504422	0.81838586	0.60168976
0.12082388	0.07056497	0.13448086
0.12686211	0.55983663	0.12522777
0.64831971	0.30978879	0.13525225
0.60666998	0.80526251	0.11913969
0.61655403	0.06572724	0.63221957
0.60842672	0.56117244	0.63155375
0.12478245	0.31745085	0.62779775
0.10031104	0.82388534	0.59506195
0.11961244	0.07254427	0.13250933
0.13339763	0.56207684	0.12906651
0.63981907	0.30903502	0.14241743
0.60123464	0.80606287	0.12467379
0.62322652	0.06868716	0.62565344
0.61657024	0.56421085	0.62958616
0.12093952	0.32234167	0.63526761
0.10378344	0.83140114	0.60037437
0.12028158	0.06845251	0.13733385
0.12592742	0.56267826	0.1268065
0.62727478	0.31142093	0.14163583
0.59587204	0.81143488	0.13051026
0.62589184	0.06985355	0.6190614
0.62793177	0.56522567	0.61897572
0.12058377	0.32407047	0.64915678
0.11335502	0.8288106	0.61269788
0.11241703	0.06404747	0.13990185
0.11906652	0.56158027	0.11722438
0.62499994	0.31178581	0.133257
0.59364501	0.81373391	0.13180521
0.62827715	0.06358588	0.63004802
0.6343577	0.56671298	0.61896021
0.1252367	0.32143979	0.64231639
0.12124812	0.81785379	0.61768999
0.10573952	0.06364263	0.13665104
0.12186185	0.56285835	0.10798178
0.62642614	0.30698999	0.1265651
0.59546041	0.80997003	0.13221408
0.63123524	0.05924804	0.63904942
0.63420289	0.56900994	0.62736731
0.12998659	0.32032702	0.626449
0.12265979	0.81287105	0.61601968
0.11409075	0.06274286	0.13101093
0.12593621	0.56436011	0.10644371
0.62120946	0.30427321	0.13163061
0.59198439	0.80589695	0.13156534
0.6308823	0.06174365	0.63085963
0.63433988	0.57142558	0.62677414
0.13559498	0.32174951	0.62097746
0.12008243	0.82365557	0.61587265
0.12635951	0.05971404	0.13095634
0.12014087	0.56235277	0.10661396
0.61624869	0.30707707	0.14031435
0.59081903	0.80756272	0.12765549
0.62574465	0.06536742	0.61892244
0.64164719	0.57040298	0.61709161
0.14310828	0.32256701	0.62241554
0.12473632	0.83098458	0.61864141
0.11793045	0.05648835	0.13622955
0.11399264	0.56062023	0.10218231
0.62118988	0.30906312	0.1357767
0.60238925	0.8128542	0.12242466
0.62012848	0.06692902	0.61997197
0.64694717	0.56509119	0.609821
0.14236072	0.31924301	0.61726822
0.12794839	0.82728679	0.62105701
0.10159276	0.05824726	0.13897775
0.1238743	0.56202002	0.09590544
0.63467959	0.30853478	0.11851389
0.62007302	0.81480534	0.12125386
0.61991468	0.06595175	0.63125326
0.64085024	0.56311743	0.61185131
0.13572267	0.31445461	0.60739382
0.12493244	0.82124545	0.62242231
0.1064219	0.06268531	0.13804242
0.13547748	0.56476975	0.1009708
0.6438802	0.30609885	0.10982346
0.63537436	0.81454973	0.12598628
0.62350788	0.06658437	0.63971564
0.63984377	0.56616079	0.62292321
0.13350134	0.31493577	0.60033937
0.1206714	0.82361402	0.62279595
0.12611619	0.06481719	0.13758283
0.129449	0.56531466	0.11406568
0.641152	0.30355813	0.11841773
0.64259221	0.81333656	0.12482878
0.62107054	0.0686677	0.638319
0.64862631	0.56701987	0.62866621
0.13971509	0.32054658	0.60271368
0.12637685	0.82880011	0.62419516
0.12826245	0.06141352	0.1378752
0.12046094	0.56357095	0.11658832
0.63089718	0.30395385	0.12493019
0.6463339	0.80930342	0.12215909
0.61370205	0.07016599	0.63313482
0.65340282	0.5657156	0.62186939
0.14474376	0.32546256	0.61383204
0.13323943	0.82794519	0.6297517
0.11663279	0.05935665	0.13512594
0.12191219	0.56476599	0.11158319
0.62901145	0.30885159	0.11552285
0.65324	0.80454567	0.12716222
0.61513037	0.06821494	0.6299419
0.64993932	0.5646284	0.60939926
0.14248248	0.322169	0.62182191
0.1297197	0.82134263	0.63878758
0.11426907	0.06371008	0.13179635
0.13092498	0.56816518	0.1124121
0.63351728	0.31281248	0.10675817
0.66448345	0.80156504	0.13608994
0.63102763	0.0660178	0.62875337
0.64466347	0.56465096	0.60717834
0.13582827	0.31784729	0.61819361
0.1245733	0.81968814	0.64328122
0.12918345	0.07026932	0.13048281
0.13585396	0.56816458	0.11597431
0.62988973	0.31036348	0.10803767
0.6700192	0.80302141	0.13655548
0.64239725	0.06575664	0.62510836
0.64245537	0.56513246	0.61650659
0.13491995	0.31845718	0.61940466
0.12877679	0.82207285	0.63785713
0.13917539	0.07186021	0.12928217
0.13423085	0.56721861	0.10893892
0.62179608	0.30932038	0.11304758
0.66297755	0.808289	0.12724131
0.64248073	0.06584299	0.6211187
0.64056113	0.56567789	0.62383893
0.1411743	0.32037954	0.62768427
0.12928449	0.8215968	0.63090978
0.1344491	0.07003686	0.12254339
0.13651758	0.56933266	0.09951072
0.62546404	0.31139495	0.11343542
0.64916302	0.81101027	0.12042255
0.63702563	0.06355142	0.61859386
0.63729647	0.56481022	0.61888375
0.13864672	0.31579326	0.6299084
0.12408814	0.81454617	0.63300136
0.12475647	0.0707742	0.11559704
0.14698002	0.57132546	0.10723746
0.62811636	0.31368054	0.10810904
0.64171239	0.80848449	0.12375288
0.6382099	0.06106159	0.61367392
0.63394674	0.5621169	0.61201785
0.11750916	0.3126243	0.62929457
0.12080563	0.80810598	0.64015484
0.12663783	0.07352107	0.12046804
0.15333078	0.57030116	0.12048959
0.62370996	0.31384167	0.10291798
0.64312553	0.8110094	0.12693586
0.6441283	0.05960848	0.61538246
0.62919464	0.56145787	0.62014226
0.11101909	0.31662665	0.63064959
0.13046829	0.81112097	0.64161365
0.14017918	0.07196222	0.12761625
0.15213215	0.57085124	0.12032423
0.62132744	0.31206485	0.10959233
0.6465436	0.81643452	0.1219215
0.64674659	0.05949569	0.62703309
0.62372243	0.56365627	0.63027318
0.12690797	0.32183993	0.63430499
0.14296874	0.81818916	0.6313545
0.14965224	0.07080698	0.11856686
0.14865925	0.57190154	0.12384241
0.62278541	0.31011462	0.11924483
0.64426204	0.81344685	0.11770105
0.6428456	0.05796955	0.63037485
0.62342027	0.56443827	0.62416075
0.13377542	0.32017111	0.63892651
0.14785287	0.81596812	0.62120268
0.1424065	0.06979214	0.10888705
0.1462733	0.570609	0.14258043
0.62425673	0.31008295	0.11752933
0.63524473	0.80382061	0.12375648
0.63796827	0.05333777	0.6232787
0.63268418	0.56225133	0.61402026
0.12235375	0.31629437	0.63953475
0.14742536	0.80966173	0.6238633
0.1298216	0.06628816	0.11265163
0.14639959	0.56979388	0.158649
0.62469354	0.31140161	0.11202909
0.62333112	0.80305867	0.13034245
0.63723018	0.05094027	0.61457966
0.64085571	0.55962989	0.61772416
0.11499918	0.31630565	0.63217181
0.15030828	0.81079517	0.63458291
0.12962187	0.0628909	0.11824863
0.14567451	0.56652548	0.15685473
0.62982112	0.30944619	0.11813739
0.61780954	0.80997025	0.12262121
0.63370289	0.05558514	0.61043175
0.63594373	0.56127939	0.63005689
0.12436499	0.31902147	0.624186
0.15187544	0.81831052	0.63015631
0.14260127	0.06266859	0.11554896
0.14138523	0.5615661	0.14758821
0.6333029	0.30343903	0.12892593
0.61843836	0.81334191	0.10991633
0.62578285	0.06347094	0.61287118
0.62336031	0.56468094	0.63636793
0.13340137	0.31881304	0.6277145
0.14552407	0.82194375	0.62299645
0.14427943	0.06429339	0.10990434
0.13300742	0.55982846	0.13991374
0.62978505	0.300086	0.13269013
0.61630056	0.80828536	0.10536073
0.62048833	0.06291831	0.61482393
0.62561905	0.56389561	0.63123727
0.12282298	0.31596373	0.63885733
0.13735902	0.81678609	0.62784044
0.1299469	0.06176732	0.1087626
0.12469921	0.56118038	0.13960072
0.62475252	0.30283935	0.12660819
0.60968133	0.80117008	0.1080689
0.61851697	0.0578643	0.60726595
0.64000321	0.55740602	0.62444619
0.11132738	0.31409494	0.64115948
0.13987615	0.81299854	0.63618312
0.11043989	0.05784077	0.11322208
0.12282447	0.563466	0.14722992
0.62632791	0.30472098	0.1171323
0.608367	0.79839746	0.11024154
0.61800435	0.0571579	0.59968129
0.64548049	0.5519902	0.62660636
0.11106115	0.31787734	0.63039544
0.15189516	0.82039635	0.63776587
0.10765446	0.05542414	0.12029645
0.124351	0.56360787	0.14868184
0.63625503	0.30156666	0.11438016
0.61831039	0.80037917	0.11178903
0.61492187	0.06245507	0.60553575
0.63735159	0.55168499	0.63120351
0.11989764	0.32181799	0.61564065
0.15294256	0.82748602	0.63457091
0.12804769	0.05426731	0.12280077
0.12298331	0.55832498	0.13829574
0.64159717	0.2971525	0.12150803
0.62951626	0.80179263	0.11407329
0.6079954	0.06471868	0.62291806
0.6303598	0.55311946	0.62514609
0.13108755	0.32119648	0.61405777
0.14135942	0.82364647	0.62918834
0.13645249	0.05228474	0.12291807
0.1215597	0.55036451	0.12837514
0.63466989	0.29677186	0.12893741
0.62639139	0.79951189	0.11506657
0.60397519	0.05766833	0.63052041
0.63196097	0.55279614	0.61434576
0.13538017	0.31736333	0.62314632
0.13557032	0.81672354	0.62254849
0.121742	0.04815887	0.12153728
0.11793575	0.54514635	0.12932869
0.62383385	0.29781686	0.12519315
0.62072017	0.79813866	0.11541856
0.60532806	0.05099119	0.61764873
0.63482004	0.55092474	0.61194257
0.12937042	0.31409846	0.62154586
0.14009203	0.8169294	0.6203802
0.10739099	0.04478535	0.12723773
0.10900785	0.54500934	0.13231998
0.62026764	0.29735774	0.11828064
0.62619581	0.80119381	0.11898951
0.60683596	0.05742085	0.60368329
0.63155392	0.55252058	0.62420672
0.12479692	0.31472033	0.61435169
0.13225897	0.82346401	0.62344978
0.11232116	0.04530224	0.13552125
0.10064247	0.55085898	0.12843056
0.6241849	0.29400835	0.11900984
0.63318434	0.80471176	0.12571176
0.60863451	0.06254413	0.60339451
0.62339088	0.55672612	0.63971208
0.13076654	0.31730644	0.61254514
0.117622	0.82656929	0.62129585
0.12252619	0.04881077	0.13837116
0.09997807	0.55421089	0.11915195
0.62887984	0.29094468	0.12559864
0.63276916	0.80406799	0.13158057
0.61207981	0.05469842	0.61611272
0.61786764	0.55363561	0.63845675
0.13760049	0.31645533	0.61855111
0.10716514	0.82191839	0.61400073
0.1218129	0.05207787	0.12746821
0.10691661	0.55271605	0.11458743
0.63084972	0.29346595	0.13078346
0.63106139	0.80135862	0.13526269
0.61747824	0.04947905	0.62969494
0.61763769	0.55133515	0.62579178
0.13651956	0.31316534	0.63111515
0.10082997	0.816299	0.6092984
0.11346882	0.05532517	0.11315696
0.11847443	0.55283625	0.11852733
0.62931112	0.30151458	0.13035221
0.63477518	0.80044742	0.13490948
0.62318668	0.05676954	0.62888006
0.61731845	0.55803089	0.62475311
0.12578447	0.31110356	0.63979435
0.09932434	0.8187684	0.61287065
0.11168281	0.05990512	0.10788103
0.12624811	0.55894969	0.12057478
0.6256135	0.30673444	0.12430952
0.63875112	0.80015381	0.12920204
0.62701188	0.05862975	0.61939321
0.61098022	0.56488166	0.63113272
0.11625973	0.31173515	0.63481851
0.10181235	0.82478757	0.62054335
0.11803171	0.06502002	0.11521966
0.12702148	0.56253646	0.11565339
0.62213803	0.30372656	0.12689762
0.63220059	0.79802281	0.12122232
0.62611635	0.05397762	0.61868101
0.59891494	0.56536269	0.62696519
0.12154993	0.31457502	0.62061045
0.10643227	0.82411526	0.62336447
0.12300416	0.06597788	0.12165951
0.12093074	0.55619173	0.11026388
0.61784872	0.29873407	0.13331407
0.61949864	0.7949798	0.11781566
0.62524513	0.05296852	0.62634708
0.59319779	0.56265105	0.61635781
0.13146126	0.31626448	0.61198615
0.10740408	0.81275903	0.62134868
0.11889465	0.05909433	0.1171588
0.11739656	0.54823841	0.10857084
0.61267347	0.30323043	0.13039717
0.61821755	0.79622401	0.12158892
0.62467154	0.05808613	0.62802603
0.60164034	0.56354995	0.61289112
0.12081154	0.31539532	0.61466501
0.10861246	0.80052038	0.62046453
0.1102372	0.05324607	0.11234586
0.12149608	0.55145815	0.10642145
0.60534863	0.30774123	0.1258323
0.62893528	0.80033457	0.12659727
0.61574848	0.06503909	0.62412984
0.60907737	0.56905991	0.62247414
0.10661078	0.31383032	0.6174407
0.10998089	0.80076763	0.62386816
0.11039607	0.05629098	0.11369451
0.11794364	0.55936139	0.11111587
0.59901853	0.30249339	0.12759835
0.63856467	0.80058801	0.12772776
0.60601785	0.06833113	0.62013652
0.60677502	0.57054127	0.63857906
0.10972069	0.31421812	0.61567074
0.11171677	0.80931912	0.62408972
0.11907093	0.06353107	0.11697012
0.11507764	0.55829984	0.12393908
0.60033431	0.29683585	0.13386285
0.63743345	0.79693486	0.12692977
0.60814058	0.06831454	0.62138086
0.60189949	0.56485314	0.64283296
0.11905578	0.31536776	0.62118368
0.11384602	0.80687226	0.61776066
0.13058253	0.0613297	0.11597087
0.12247083	0.55320924	0.13058105
0.61112858	0.29788946	0.1393858
0.63149724	0.7956429	0.12692743
0.61863476	0.06624818	0.6272232
0.60769003	0.56126728	0.63269164
0.11090865	0.31264314	0.62842437
0.11161694	0.79834919	0.61174587
0.13600289	0.05479694	0.11123853
0.12945824	0.55508317	0.12350279
0.61195191	0.30077552	0.14176713
0.63170244	0.79950751	0.12455712
0.62367687	0.0617047	0.63459415
0.61276362	0.56170935	0.62095511
0.091231	0.30942594	0.62452046
0.10673515	0.80157768	0.61891169
0.13262721	0.05716284	0.10851077
0.12243319	0.56212088	0.11835654
0.60307275	0.30044235	0.13894079
0.62980766	0.80119172	0.11818875
0.62269999	0.05611357	0.63652873
0.61228959	0.56149033	0.61811716
0.08517298	0.31021798	0.61843557
0.109133	0.81189587	0.62618095
0.12860492	0.05917795	0.11291765
0.11120667	0.56310482	0.12852196
0.59993813	0.297945	0.13125077
0.62028536	0.80037412	0.1125389
0.62163812	0.05695042	0.62993225
0.61783504	0.55848656	0.62426997
0.09842385	0.30959034	0.61307569
0.11524594	0.81245906	0.62641204
0.13143315	0.05328811	0.1216531
0.11010128	0.55606305	0.13238744
0.60246035	0.29971094	0.12371953
0.61073973	0.80542197	0.11227748
0.62392661	0.06241564	0.62210706
0.62186819	0.55407086	0.62709133
0.10993791	0.30537683	0.61560022
0.12249124	0.80349642	0.62526896
0.14032406	0.04693151	0.12412814
0.11581819	0.5481404	0.11972279
0.60648649	0.3065535	0.12017028
0.60780357	0.80932279	0.1268438
0.62611466	0.06047836	0.62034071
0.61983749	0.55174376	0.61987533
0.10327313	0.30430224	0.62174122
0.12560361	0.8019504	0.62595131
0.14514937	0.04559083	0.11590954
0.11525813	0.54714157	0.1150902
0.60793354	0.30972378	0.11152215
0.61121506	0.80828104	0.14653416
0.62540902	0.05560593	0.62132446
0.61314506	0.55156139	0.6158398
0.09135537	0.30793563	0.62430219
0.12361027	0.81235938	0.62607069
0.1423346	0.04828601	0.11206853
0.10461743	0.55087113	0.12252251
0.60329498	0.30582339	0.10617786
0.61503128	0.8046258	0.14433532
0.62403362	0.05159506	0.61596316
0.60917049	0.55348855	0.62910526
0.09433403	0.30848722	0.62527911
0.12182741	0.82261782	0.62457181
0.13512626	0.05123129	0.12073757
0.10140155	0.55305365	0.12388155
0.60937673	0.30380816	0.10794922
0.61742271	0.80273989	0.12866637
0.62642027	0.04908325	0.60940805
0.60959599	0.55306163	0.6355936
0.10662447	0.30407672	0.62758471
0.12205693	0.82250775	0.62296418
0.13031606	0.05219199	0.13112746
0.11532045	0.5525984	0.11770625
0.61613022	0.30542083	0.10588599
0.61772695	0.8041116	0.12955612
0.6284093	0.04991688	0.60946256
0.61316242	0.55045792	0.62132512
0.11622214	0.30601661	0.62792308
0.1230929	0.81492452	0.62318448
0.1284894	0.05283207	0.13542467
0.1298453	0.55291462	0.11734878
0.61848936	0.30650952	0.09812916
0.6116581	0.80623945	0.14170024
0.62572812	0.05450384	0.61271066
0.61817588	0.55110405	0.60840103
0.11790909	0.31253593	0.62585731
0.12359855	0.80995493	0.62754745
0.12562528	0.05625362	0.13289044
0.13053327	0.55785109	0.12540139
0.62260715	0.30423488	0.0946643
0.60448139	0.80874922	0.13784479
0.62106559	0.05830488	0.61493763
0.62088953	0.55737883	0.61231732
0.11289714	0.31448419	0.62501781
0.1227031	0.81381942	0.63112481
0.11917909	0.06064373	0.13186247
0.12354196	0.56235418	0.13252155
0.63205389	0.30240984	0.09548779
0.61058226	0.81291967	0.12035635
0.61883075	0.05924211	0.61561798
0.62165449	0.56410144	0.62083466
0.11274237	0.31175618	0.62515838
0.12111563	0.82080904	0.62513266
0.11043752	0.06528837	0.13551288
0.11412587	0.55873027	0.13286727
0.64277266	0.30471765	0.09353908
0.6157316	0.81637917	0.11144365
0.61872465	0.06060849	0.61377895
0.62143714	0.56434939	0.61955791
0.12044599	0.31043187	0.62465821
0.12415018	0.82118637	0.62430124
0.11229395	0.06737767	0.13961201
0.11366891	0.55383778	0.13134005
0.64157275	0.30998428	0.09525233
0.61077936	0.8170286	0.12367611
0.6173806	0.06343451	0.61014269
0.62074286	0.5595722	0.60897778
0.12417674	0.31267638	0.62639176
0.13034277	0.81840926	0.63208555
0.12262595	0.06580051	0.1381464
0.12167399	0.55639637	0.13165155
0.62873353	0.31398142	0.10578917
0.60846558	0.81483305	0.13702658
0.6152088	0.06563458	0.60784663
0.62189211	0.56081856	0.60371307
0.12103283	0.31719532	0.62971513
0.13470718	0.81771027	0.637161
0.12462068	0.06737932	0.13401794
0.12547719	0.56666894	0.12746604
0.62387739	0.31248074	0.11654604
0.61728149	0.8108963	0.13024874
0.61466326	0.06560209	0.60792343
0.62966114	0.56899598	0.60854297
0.12055066	0.3191209	0.62711026
0.13152304	0.81983738	0.63411145
0.11257069	0.07196913	0.13691212
0.121356	0.57380025	0.11995969
0.63309654	0.3090013	0.11823757
0.62499882	0.8070824	0.11149394
0.6167821	0.0642045	0.61437343
0.63330316	0.57037447	0.61645871
0.12552568	0.31762517	0.61564589
0.12122538	0.82044549	0.62755131
0.10084828	0.07497524	0.1465444
0.12031964	0.5740893	0.11981963
0.64718907	0.30911372	0.12127654
0.62072421	0.80298551	0.10369268
0.6190824	0.06280584	0.62334379
0.62568966	0.56690787	0.61833126
0.1342611	0.31814934	0.60490519
0.11322307	0.81623153	0.62737954
0.10065696	0.07496777	0.14993373
0.12620744	0.5748616	0.12564886
0.63967563	0.31014711	0.1252137
0.60827285	0.80326037	0.10799677
0.62033306	0.06364031	0.62990956
0.62307327	0.56757652	0.61071013
0.14241302	0.32547539	0.60204197
0.11670838	0.81199478	0.62951535
0.11194752	0.07305757	0.13996089
0.12852561	0.58017177	0.12533108
0.62353065	0.31082137	0.12469311
0.6090196	0.80843852	0.11401972
0.62426276	0.06631702	0.62873745
0.62728564	0.57129185	0.60702568
0.14458699	0.33265211	0.61264947
0.12376977	0.81179841	0.62860375
0.12037356	0.07092086	0.12066233
0.1225134	0.58458945	0.12085941
0.6211327	0.31288515	0.12290746
0.63056753	0.81200814	0.10974988
0.62941128	0.06808427	0.62229362
0.62615893	0.57156211	0.61625651
0.14551151	0.33374251	0.61695831
0.11575507	0.81707645	0.62602578
0.11704211	0.07257345	0.11446654
0.11684686	0.58126771	0.12587614
0.63023248	0.3158292	0.12401638
0.64229763	0.81230961	0.10306404
0.63179115	0.06622592	0.62527165
0.61700947	0.56579378	0.62806186
0.1478303	0.33059597	0.61788744
0.105055	0.82425185	0.62385742
0.10916048	0.07641291	0.11876151
0.11966748	0.57412144	0.14049783
0.63096779	0.31594197	0.13067529
0.63015299	0.81509125	0.10695539
0.63173686	0.06224874	0.6360939
0.60646752	0.55863486	0.63095489
0.14691809	0.33077379	0.62300014
0.10848502	0.82673349	0.62396554
0.11719877	0.07803612	0.11610706
0.1264347	0.56842648	0.1407262
0.62086875	0.31481717	0.13738883
0.61315928	0.81911006	0.11547113
0.63584374	0.06604879	0.6437621
0.60812984	0.55795297	0.6273458
0.14013564	0.33489152	0.62829079
0.11742363	0.8283584	0.62360401
0.12890897	0.07645663	0.1138661
0.12491227	0.5697446	0.12606216
0.61430815	0.31347573	0.1376609
0.61841319	0.81932971	0.12028703
0.64117835	0.0722972	0.64011404
0.62848075	0.56439951	0.62729372
0.13362395	0.33588058	0.63008031
0.11577687	0.82988406	0.6217795
0.12854691	0.07254262	0.11504635
0.11235765	0.57565182	0.11457525
0.6191396	0.30990898	0.1348722
0.64026572	0.81660017	0.11865311
0.64242001	0.0689328	0.63347705
0.64338138	0.57371092	0.63899144
0.13537604	0.33169907	0.6290418
0.10424663	0.82900515	0.62319864
0.12631449	0.07167731	0.11727074
0.10806879	0.5772429	0.121746
0.62750129	0.3088334	0.13632375
0.64796975	0.81368255	0.11227357
0.63420664	0.06629923	0.6385232
0.63699938	0.5782231	0.65210279
0.143356	0.32991364	0.62532525
0.09798188	0.83003596	0.63095474
0.13187926	0.07461843	0.11841843
0.11746943	0.57031079	0.12794833
0.63105835	0.31323475	0.14007903
0.6334824	0.81294428	0.1086769
0.62676159	0.07208876	0.65547765
0.62082371	0.57334786	0.64644662
0.15005319	0.33137699	0.61709216
0.10738103	0.83364068	0.63907104
0.14148718	0.07190169	0.12092772
0.12858738	0.56222492	0.12174302
0.62581758	0.3150544	0.13928417
0.61750072	0.81523457	0.11538996
0.62562936	0.07756567	0.66454816
0.61419696	0.56881008	0.63369665
0.15020608	0.33024575	0.61380768
0.11809307	0.8314532	0.63594454
0.14154752	0.06380587	0.12390314
0.1241947	0.56125407	0.11334264
0.62367346	0.31468519	0.13463616
0.61241461	0.81710164	0.12285063
0.62257611	0.07669017	0.65438977
0.62682324	0.57202929	0.6309605
0.14421346	0.3233727	0.62306032
0.11795076	0.82554227	0.62791429
0.13308342	0.05716368	0.1256575
0.12023767	0.56297267	0.11477551
0.63409404	0.31821608	0.13514948
0.61897919	0.81564738	0.12508298
0.61536207	0.07152403	0.63592343
0.64373172	0.5770701	0.63124412
0.1341718	0.31623692	0.63517398
0.10846311	0.82483958	0.63180508
0.13279772	0.0577232	0.12719529
0.13176647	0.56191972	0.12697623
0.64241849	0.32253755	0.14075307
0.62789883	0.81582777	0.12565417
0.61616768	0.06925908	0.63010872
0.64312006	0.57753064	0.6267715
0.12356913	0.31482822	0.63782888
0.11503412	0.82692273	0.64154079
0.14098139	0.06246552	0.12901085
0.14844857	0.56135216	0.13808928
0.64302787	0.32138485	0.14147286
0.62869435	0.81989546	0.12796709
0.62338258	0.07168548	0.63440208
0.62643611	0.57569384	0.62236601
0.11865592	0.31684734	0.63340322
0.12852196	0.82595232	0.63554958
0.14316568	0.06228348	0.13078263
0.15265418	0.56265997	0.14203594
0.64294716	0.3141067	0.13388944
0.6258607	0.82100717	0.13215506
0.62664292	0.07493452	0.63719956
0.622424	0.57583495	0.62313536
0.11561292	0.31440758	0.63027996
0.13272393	0.82057524	0.61508818
0.13930202	0.05581584	0.13259102
0.14497874	0.56276316	0.13294009
0.64632223	0.309469	0.12856094
0.62762862	0.81769358	0.13144508
0.62300663	0.074691	0.62810733
0.6397057	0.57688832	0.62611089
0.11010231	0.31048197	0.63418755
0.12862171	0.81692637	0.60578763
0.13979323	0.05033825	0.13394586
0.14033077	0.56260742	0.12081172
0.65011203	0.3105764	0.13638769
0.63552312	0.81423535	0.12142983
0.62124224	0.07311399	0.6167938
0.6548496	0.57474761	0.62266167
0.10931704	0.31088729	0.63995264
0.12763861	0.82117333	0.61209147
0.14352569	0.05079528	0.13051821
0.15273898	0.56349752	0.1180134
0.64676945	0.31165901	0.14096012
0.63920119	0.81296768	0.10686198
0.62612812	0.07525492	0.62224033
0.64885953	0.57035955	0.61584168
0.11625763	0.31571792	0.64056348
0.13669837	0.82456834	0.61830883
0.14141234	0.05342792	0.1244938
0.16503807	0.56361932	0.12469531
0.63889038	0.3098559	0.13302636
0.62854424	0.81294516	0.10255498
0.63432587	0.07577997	0.63009997
0.63646071	0.56996466	0.6136507
0.12459087	0.32108449	0.63996826
0.14427725	0.81663268	0.61125789
0.13410509	0.05333612	0.12700399
0.15702497	0.5610749	0.12844771
0.63610668	0.30729009	0.12361068
0.61448525	0.81089209	0.11417527
0.64282945	0.07267302	0.62253995
0.63367536	0.57159727	0.61767848
0.12986211	0.31993712	0.64450001
0.13560497	0.80817899	0.59910048
0.13053339	0.05040262	0.13607061
0.13556374	0.55723816	0.11822016
0.63559506	0.30755312	0.12490611
0.61592106	0.80668166	0.12425569
0.64045175	0.06752908	0.60948741
0.64292265	0.56880849	0.62109927
0.13072038	0.31477659	0.64729693
0.12617601	0.81046546	0.59303782
0.1332189	0.05077174	0.1403045
0.12913562	0.55703977	0.11392919
0.63630267	0.3104133	0.1280101
0.6214258	0.80271167	0.11983163
0.63832779	0.06238271	0.61046467
0.64648421	0.56404177	0.62506199
0.12898725	0.31444739	0.64251779
0.14103754	0.81730367	0.59743743
0.13456954	0.05943463	0.13621964
0.13671027	0.55835153	0.12944324
0.64202204	0.31100787	0.12192834
0.62420279	0.80198095	0.11433915
0.64145779	0.05993976	0.62598734
0.63558649	0.5607715	0.63122692
0.12854394	0.31624614	0.63581004
0.15332623	0.81974573	0.61023846
0.12605174	0.06429119	0.12745815
0.13903906	0.55651949	0.13086004
0.64811336	0.30469628	0.11186274
0.63276858	0.80342347	0.11790019
0.64253587	0.06163828	0.63584711
0.62644361	0.55965343	0.64069666
0.1300459	0.31597974	0.63098744
0.1472003	0.81522305	0.61385467
0.11462059	0.05914095	0.13092053
0.12940635	0.55339545	0.11956921
0.6460312	0.30161947	0.1119606
0.63344222	0.80328404	0.11917815
0.63671653	0.0627621	0.62965347
0.63203877	0.56033272	0.63820936
0.13144249	0.31602137	0.63188973
0.13655904	0.81340855	0.60623505
0.11071259	0.05698856	0.143703
0.12100686	0.55199339	0.1122442
0.6266138	0.30323791	0.11268122
0.62683859	0.80182689	0.11654267
0.62696284	0.06231345	0.61125612
0.64106862	0.56378904	0.63022421
0.13531893	0.31842666	0.6368107
0.13330533	0.81739276	0.59901448
0.11358611	0.06281335	0.13877532
0.12432227	0.55306847	0.11487217
0.61182185	0.30122333	0.11080531
0.62399932	0.80076804	0.11758621
0.62707841	0.06337574	0.60372992
0.6369329	0.56690557	0.6283826
0.14331594	0.32160142	0.63301267
0.14126636	0.82022335	0.61521929
0.11495859	0.06916765	0.12611979
0.12943704	0.55510003	0.12261175
0.60986141	0.2959831	0.11442867
0.62602842	0.80069888	0.12053632
0.63161802	0.06333261	0.61298312
0.62654688	0.56467307	0.62223971
0.15339009	0.32111086	0.62058123
0.14485488	0.81662054	0.6289944
0.11655201	0.06650033	0.12704943
0.12454981	0.55467222	0.12683065
0.60864588	0.29254088	0.11815129
0.63006177	0.80153984	0.12135411
0.63054867	0.06114326	0.62641857
0.62120637	0.56058053	0.61412837
0.15843936	0.31813448	0.61467428
0.1342613	0.81226131	0.62294107
0.11605216	0.05948572	0.13457177
0.11785043	0.55288963	0.12655599
0.59692005	0.29522398	0.11765589
0.63461719	0.80222429	0.12363058
0.62332275	0.05700401	0.61961654
0.62525846	0.55997743	0.60982984
0.15322128	0.31672709	0.61885509
0.12199251	0.81224442	0.61642548
0.11608508	0.06154647	0.13358788
0.12190412	0.55467849	0.12463555
0.59023356	0.30000934	0.10855799
0.63828736	0.80043744	0.13135358
0.61498262	0.05577308	0.59941747
0.631065	0.56041045	0.61398883
0.13734274	0.31712984	0.61856932
0.12317237	0.81550967	0.62147595
0.1175456	0.06618705	0.12033027
0.12859239	0.55969813	0.12951051
0.59980415	0.29934408	0.10168408
0.63680899	0.79745825	0.13782543
0.61021604	0.05931406	0.59150666
0.63390589	0.5596106	0.62487011
0.12666606	0.3172632	0.60671141
0.13407523	0.8154954	0.63013599
0.11652771	0.06210919	0.10635668
0.12895236	0.56232596	0.12408841
0.61937855	0.29340169	0.10274974
0.6346611	0.79535914	0.13582689
0.61276794	0.05940423	0.60364929
0.63385464	0.55814515	0.62705405
0.13017163	0.31711563	0.59055471
0.13656218	0.81214277	0.63109036
0.11338748	0.0551662	0.1052047
0.12951363	0.56097323	0.11100489
0.61724292	0.29243722	0.10906952
0.63337792	0.79736127	0.13240624
0.62052263	0.05865965	0.61726298
0.63922013	0.55602024	0.61789353
0.13239217	0.31622337	0.5851193
0.12931613	0.81271243	0.63205226
0.1178364	0.05168666	0.1113503
0.13530399	0.56111597	0.11108633
0.60218348	0.29935178	0.10807327
0.63109755	0.7993502	0.13315918
0.62587217	0.06094164	0.61405112
0.64811502	0.55626725	0.60540635
0.11892801	0.31407625	0.59179706
0.11859969	0.82032052	0.63729657
0.1241526	0.05244924	0.10685511
0.13622523	0.56145358	0.11932415
0.60434488	0.30713943	0.10448922
0.62803774	0.79763988	0.13481453
0.62866871	0.06174384	0.59992669
0.64803719	0.56080919	0.60383519
0.10650379	0.31174052	0.59864095
0.11781279	0.82506062	0.64080847
0.12645751	0.05556068	0.09375909
0.13019954	0.56039111	0.12665764
0.61299424	0.30867005	0.1100143
0.62599578	0.79629767	0.13242258
0.63168182	0.05898168	0.60083862
0.63722712	0.56297218	0.61203931
0.10848137	0.31125124	0.59506946
0.124199	0.82168209	0.64048003
0.12370796	0.05856271	0.08422705
0.12274921	0.5609168	0.12487989
0.60819672	0.30063579	0.11749787
0.62630104	0.79899005	0.12878195
0.63204055	0.05468626	0.61679134
0.63005755	0.55886216	0.61740686
0.11744517	0.3118225	0.58736047
0.12456384	0.81061027	0.64082841
0.12661777	0.05783362	0.09024842
0.1139666	0.56312778	0.115256
0.60402875	0.29206426	0.1174015
0.62883705	0.80082093	0.13025388
0.62565317	0.05507642	0.62735571
0.62977328	0.55254974	0.61762163
0.11857467	0.30993002	0.58874892
0.11734898	0.80516286	0.64127928
0.13058093	0.05427908	0.10478807
0.10727103	0.56395305	0.10812993
0.6101011	0.29410519	0.11866528
0.63029737	0.80114374	0.13750162
0.61534234	0.05931039	0.62264156
0.62655014	0.55072325	0.61931949
0.10991158	0.30771371	0.60399659
0.11203129	0.80885284	0.63965911
0.1277993	0.05392923	0.11288175
0.10376144	0.56197097	0.10946339
0.62273067	0.30140155	0.12585967
0.62700882	0.79976338	0.13987149
0.61183709	0.05940562	0.61014614
0.61637256	0.55621353	0.62037654
0.10671103	0.30889979	0.61976254
0.11396651	0.81218868	0.63559489
0.12689192	0.05727011	0.10829443
0.10197967	0.55992383	0.11185522
0.63311187	0.30413311	0.13160039
0.62036164	0.79882412	0.13883555
0.61827793	0.05495863	0.60148025
0.60813835	0.5613822	0.619344
0.11275197	0.31111819	0.62310863
0.12214208	0.81029944	0.6314314
0.12948114	0.05890244	0.10133995
0.10228557	0.55915528	0.11094363
0.63707622	0.30057693	0.12809168
0.61797883	0.80126355	0.14132581
0.62694992	0.05226649	0.61376453
0.60545558	0.55883467	0.62324542
0.11630418	0.31094699	0.62051442
0.13156974	0.8092885	0.62831168
0.13550672	0.05735692	0.10565748
0.10834248	0.5572977	0.11177205
0.63519217	0.29832897	0.1178871
0.6195521	0.80466185	0.13966476
0.62599912	0.0528911	0.62961331
0.60631295	0.55182295	0.63389229
0.1083342	0.30896254	0.62349263
0.13200066	0.81280833	0.62689861
0.13946104	0.05368025	0.12023124
0.11756356	0.5532197	0.12111407
0.63307541	0.30309955	0.11428706
0.61995389	0.8052942	0.13392873
0.61609217	0.05417292	0.62399527
0.60522815	0.55124116	0.63946092
0.0952149	0.30843543	0.63330272
0.12656796	0.8178272	0.62615826
0.13563749	0.05179279	0.12077983
0.11711569	0.54872365	0.13513375
0.63191054	0.3102534	0.12051307
0.61568963	0.80290344	0.12951317
0.60840661	0.05249603	0.60411528
0.60011382	0.55941923	0.63224435
0.09244059	0.30971346	0.63485878
0.12361012	0.81758161	0.6257745
0.12923648	0.05521835	0.10733726
0.10985325	0.547038	0.14160562
0.63223911	0.30881383	0.1206461
0.611464	0.8014755	0.12647608
0.61094937	0.04933236	0.60328941
0.59479714	0.56332319	0.62413147
0.10933032	0.31196034	0.62794513
0.1231361	0.81234651	0.62677801
0.12724169	0.05845195	0.10475145
0.11290213	0.54917644	0.13991659
0.6320053	0.30469721	0.11364545
0.61291036	0.80605878	0.12041512
0.62076287	0.05016248	0.61638601
0.59496515	0.55731009	0.63002891
0.11951312	0.31384011	0.62735205
0.12322593	0.80842502	0.62854429
0.12967035	0.05880463	0.11790806
0.12386751	0.55381322	0.13824374
0.62430115	0.30597158	0.11565048
0.61637083	0.81150765	0.11676041
0.62785267	0.0550409	0.62598563
0.59681759	0.55162325	0.64196157
0.10590345	0.31195278	0.63428457
0.12278922	0.80934389	0.62948565
0.12760588	0.05963797	0.13044059
0.12790477	0.55655258	0.14285266
0.6114896	0.30728268	0.12430318
0.61483096	0.80919656	0.11797691
0.62622669	0.0586921	0.6208211
0.59386774	0.55773855	0.64794999
0.09654556	0.30918084	0.64038215
0.12066996	0.81122896	0.62557961
0.11575995	0.06090656	0.12988571
0.12251986	0.55870562	0.15023563
0.60776035	0.30658418	0.12736768
0.60867154	0.80557572	0.11973123
0.62006623	0.05914739	0.61654903
0.59069212	0.56482951	0.64311078
0.10621948	0.31163078	0.63974277
0.1184681	0.81113944	0.6184866
0.10875993	0.06041657	0.11724597
0.1129697	0.56000955	0.14867504
0.61803528	0.30564855	0.11976847
0.61105331	0.80589172	0.11735105
0.61756606	0.05826471	0.62891666
0.59567616	0.56351187	0.64288585
0.11907829	0.31703131	0.63461074
0.11750206	0.81077962	0.61634459
0.11087067	0.05912581	0.11517377
0.11019977	0.55996922	0.13846548
0.62132596	0.30383093	0.11815289
0.62015809	0.80754435	0.1110344
0.6216125	0.05951666	0.64581457
0.610396	0.55962458	0.64839571
0.12082004	0.31849492	0.62937512
0.11135888	0.81148439	0.61888372
0.1133995	0.05958177	0.13005413
0.11775383	0.56174227	0.13178292
0.61030641	0.30336957	0.13152128
0.622867	0.80777162	0.11472647
0.62185784	0.06324582	0.64939335
0.62532897	0.56020971	0.64940256
0.1154858	0.31672687	0.6253149
0.10388936	0.81248575	0.61487128
0.11730417	0.06227829	0.14416561
0.12638471	0.56515755	0.13677791
0.60439813	0.30566712	0.14560204
0.61633953	0.80584842	0.12746294
0.61193854	0.0662183	0.64008028
0.62845634	0.56528549	0.63991041
0.11658604	0.31740919	0.62204365
0.10339131	0.81554566	0.60453928
0.12337384	0.06563127	0.14041926
0.12147617	0.56662928	0.13649305
0.60883577	0.31024067	0.1478941
0.60746306	0.80481294	0.13040065
0.60379682	0.06494951	0.63182969
0.62182164	0.56801294	0.62871397
0.12535898	0.31907023	0.62036181
0.10518515	0.81905104	0.60076224
0.12101162	0.06760228	0.13023967
0.10808908	0.56667622	0.12259072
0.6167758	0.31074302	0.14500401
0.60174795	0.80818788	0.11350163
0.61155886	0.06387429	0.63229626
0.6167723	0.56347469	0.62390114
0.13295408	0.31764539	0.6206094
0.10286307	0.81882284	0.60898163
0.11938785	0.0680676	0.12728485
0.10267911	0.5667858	0.10838688
0.62202825	0.30617908	0.14903185
0.60487596	0.81295829	0.10019666
0.62349978	0.06769322	0.64345071
0.62156401	0.55820958	0.62559102
0.13069986	0.31354246	0.6256578
0.09818134	0.81634001	0.61832167
0.1295758	0.06870243	0.13445033
0.10945169	0.56671854	0.10245695
0.62226434	0.30510433	0.15849688
0.61362825	0.81038689	0.10953395
0.62059768	0.07208547	0.64744206
0.6246464	0.56019585	0.62843616
0.12311355	0.31462987	0.63377
0.09621625	0.81778557	0.62170329
0.13692072	0.06906741	0.14311916
0.11630737	0.56423096	0.1048931
0.62200932	0.31117806	0.16117588
0.6194155	0.80811457	0.11536426
0.61312838	0.07163502	0.63545846
0.61959592	0.56610955	0.62755494
0.11764701	0.32275956	0.63968958
0.0939996	0.8209588	0.62295927
0.13209548	0.06740541	0.14142028
0.11228279	0.56303909	0.10848046
0.62627006	0.31775404	0.14898734
0.61726311	0.81162122	0.10722253
0.61926188	0.06824337	0.62624384
0.61670469	0.57102655	0.62000843
0.11959909	0.32789608	0.63940159
0.08962995	0.81980135	0.62583202
0.12392126	0.06266669	0.12853033
0.10909016	0.5659976	0.10730733
0.63181518	0.31670371	0.13341484
0.61467024	0.81747522	0.10624773
0.63251457	0.06457173	0.63652994
0.62099458	0.57072174	0.6116159
0.12899065	0.32471072	0.63486662
0.09278134	0.81641145	0.62944587
0.12495237	0.05667397	0.12878736
0.11713797	0.56697134	0.10344507
0.62971888	0.31146088	0.13185702
0.61742533	0.81936584	0.12430487
0.63633365	0.0624673	0.64840909
0.6216068	0.5651234	0.60717144
0.1341252	0.32214538	0.62794083
0.10025797	0.81952905	0.62804619
0.1289743	0.05625043	0.13888482
0.12363722	0.56416589	0.10781154
0.61958257	0.3125029	0.14239182
0.61580723	0.81616485	0.1415994
0.63049986	0.06260328	0.64303965
0.61605821	0.55932885	0.60339856
0.12100317	0.32402525	0.62768197
0.10619262	0.82713037	0.62271503
0.12713692	0.06348976	0.14194638
0.12020808	0.56215426	0.11389613
0.61933261	0.3185675	0.14328343
0.60852947	0.81282804	0.13912694
0.62743784	0.06345566	0.62805537
0.61081069	0.56147165	0.60161918
0.10600729	0.3255366	0.63331454
0.11199916	0.82765514	0.62011979
0.12595612	0.06847466	0.13749706
0.11057302	0.5653484	0.11961248
0.62776776	0.32145872	0.12681726
0.60572111	0.81646027	0.12104348
0.63219129	0.06601373	0.62744715
0.60435354	0.5685636	0.6041235
0.11487206	0.32295863	0.64241202
0.11958032	0.82439427	0.62243984
0.12985651	0.06513749	0.12825513
0.10619362	0.57037327	0.1261604
0.62445497	0.31524687	0.10857367
0.60822002	0.8207722	0.10574127
0.63920658	0.0680704	0.63623579
0.59941731	0.56937682	0.60558003
0.13031286	0.31740648	0.64116773
0.12448675	0.82526529	0.62730967
0.13354988	0.06210302	0.12707895
0.11416547	0.57203873	0.13078159
0.6181508	0.3070716	0.10684397
0.61303766	0.81699171	0.10557958
0.63972545	0.06746337	0.63819603
0.60241324	0.56376464	0.60404425
0.12864998	0.3139926	0.63224229
0.12409921	0.83065377	0.6305858
0.13319572	0.06586345	0.13465694
0.13226889	0.57173508	0.13431525
0.62474443	0.30819586	0.1085539
0.61478367	0.81068016	0.11172347
0.63156722	0.06543956	0.62927708
0.61662344	0.56284927	0.60387936
0.11625071	0.31633497	0.63121855
0.12305033	0.83349949	0.62919157
0.13067365	0.0716246	0.13336364
0.13719706	0.57012414	0.1402304
0.63497853	0.31841277	0.10080341
0.61332561	0.8115116	0.11180815
0.62529451	0.06410207	0.62113135
0.63874345	0.56735139	0.61134923
0.11789446	0.32146892	0.63842338
0.12250476	0.8281793	0.62825332
0.12985151	0.07129107	0.1266676
0.12482941	0.56870793	0.14028332
0.64351015	0.32376202	0.09283463
0.61622974	0.81332197	0.10830828
0.62966158	0.0647987	0.621119
0.65505396	0.57082497	0.61876741
0.13237696	0.32263032	0.64211562
0.12009415	0.82092351	0.62977155
0.13488122	0.0668692	0.13059247
0.12588417	0.57063623	0.13117776
0.64858898	0.31693849	0.09540184
0.62190351	0.81037408	0.11039795
0.63607338	0.06593413	0.62646206
0.65221082	0.56924132	0.62063425
0.14407259	0.31885926	0.63605741
0.12071119	0.82060416	0.62784377
0.13574225	0.06847845	0.14609698
0.1329528	0.57679483	0.12809169
0.64170637	0.3084776	0.10477521
0.62303797	0.80637937	0.12202048
0.63262576	0.0660063	0.62607238
0.63198203	0.56421705	0.62113121
0.14111395	0.31835634	0.62747971
0.12424158	0.82733021	0.61860287
0.13009456	0.07687137	0.15897401
0.1314939	0.58116565	0.13709772
0.62379299	0.31053712	0.10997634
0.6219092	0.80498519	0.12932023
0.62355223	0.06476201	0.61836501
0.62459023	0.56425223	0.62521352
0.13098529	0.32226487	0.62805259
0.13054949	0.82838581	0.61009866
0.1245513	0.08252828	0.15040132
0.12891359	0.57909287	0.14548248
0.61132113	0.31568334	0.10846423
0.62356063	0.80569886	0.1237984
0.61834092	0.06396343	0.61288485
0.62980315	0.56731561	0.63215177
0.13176046	0.32508104	0.63573973
0.13591782	0.82231036	0.61341045
0.11968702	0.08004588	0.13360026
0.12855155	0.57530168	0.14008722
0.62168716	0.31353363	0.10626881
0.62926705	0.80665026	0.12131411
0.62433928	0.06363203	0.61815188
0.62827193	0.56363087	0.63349036
0.15030929	0.32319487	0.63677829
0.13695885	0.81604893	0.61786415
0.11888669	0.07248279	0.12931895
0.13014715	0.57435086	0.12929961
0.64172606	0.30757429	0.10452323
0.63295004	0.80697379	0.12594734
0.63709506	0.0641525	0.62656669
0.62182982	0.55840021	0.62244399
0.1688324	0.32140513	0.62561944
0.13548405	0.81442119	0.61821342
0.12572413	0.06787454	0.13470122
0.13231951	0.57314832	0.12976485
0.64488749	0.30701935	0.10698476
0.63172901	0.80801083	0.12422041
0.63690894	0.06800421	0.62859699
0.62662665	0.558856	0.61419638
0.16434653	0.32381586	0.62099144
0.13391237	0.81641139	0.62084202
0.13094428	0.06972306	0.13005164
0.13317494	0.56870923	0.1355347
0.62837063	0.30941505	0.12027915
0.62969628	0.8095458	0.11452703
0.6252441	0.06878349	0.62593762
0.63795107	0.56471808	0.6194227
0.14016778	0.32745545	0.62863124
0.13026863	0.8166376	0.62388926
0.12556851	0.07300581	0.11602087
0.13179681	0.56241215	0.13005911
0.62613848	0.30898532	0.13058712
0.63163733	0.80997075	0.11155193
0.62152006	0.06310672	0.62265674
0.64073006	0.56828912	0.62518772
0.12572362	0.3269026	0.63146705
0.12680303	0.8143744	0.63068603
0.11535819	0.07083393	0.11209967
0.13096354	0.55923991	0.11071273
0.64575359	0.30439939	0.13207558
0.63764626	0.80910113	0.11756407
0.62892266	0.06194429	0.62270095
0.63374402	0.5680924	0.62658521
0.13607621	0.32464692	0.62431017
0.12987392	0.81508365	0.63823283
0.11419157	0.06562653	0.12300359
0.13136877	0.56265969	0.09205596
0.65442468	0.30144798	0.13107833
0.64172808	0.81009001	0.1204274
0.63519734	0.07092564	0.62268115
0.62871403	0.56856262	0.62653552
0.14887482	0.32239327	0.61427512
0.14182036	0.82270051	0.63944474
0.11724337	0.06497238	0.13161087
0.13072431	0.56726124	0.09376932
0.63632606	0.30334915	0.13227363
0.6421507	0.81277327	0.1203981
0.63351855	0.07563225	0.61844743
0.63521904	0.5694128	0.62766412
0.14449933	0.31956819	0.61147024
0.14975709	0.82772101	0.63510753
0.11634542	0.06891038	0.12729004
0.12604072	0.56451507	0.10402835
0.62061179	0.30847265	0.13335117
0.63999634	0.81139923	0.12536798
0.62487781	0.07220065	0.61495848
0.64770167	0.57017442	0.6282138
0.12910842	0.31703517	0.61478738
0.14398182	0.82388976	0.63083084
0.11064522	0.06484769	0.12244724
0.12223649	0.55929215	0.10213334
0.6262215	0.31199572	0.13362445
0.63349807	0.81027607	0.13865135
0.61800862	0.06682866	0.61420149
0.64910528	0.57094536	0.62587932
0.12355511	0.31681715	0.61669525
0.13368279	0.81987424	0.62862881
0.10939906	0.05514071	0.12301037
0.12577974	0.55787796	0.09088353
0.63862846	0.31198426	0.1343252
0.62629339	0.81395575	0.15275015
0.62027646	0.06716724	0.61242736
0.64151019	0.57057656	0.62467218
0.1384799	0.3170815	0.61222796
0.13875604	0.82154473	0.62379082
0.12040353	0.05181253	0.12288976
0.13311185	0.55769553	0.09067699
0.63556092	0.31040476	0.1343502
0.62392606	0.81388016	0.15788945
0.63103	0.07184018	0.61409406
0.64450826	0.56921475	0.62889483
0.14973974	0.31599098	0.60691104
0.15208155	0.82415118	0.62072189
0.13595383	0.05590035	0.11830696
0.13903463	0.55389129	0.11161667