f6 hf mg 
1.0
        7.9162998199         0.0000000000         0.0000000000
        0.0000000000        15.8325996399         0.0000000000
        0.0000000000         0.0000000000         7.9162998199
    F   Mg   Hf He
   40    8    8 12008
Direct
     0.251040015         0.000000000         0.000000000
     0.748960045         0.000000000         0.000000000
    -0.000000000         0.125520007         0.000000000
    -0.000000000         0.874480023         0.000000000
    -0.000000000        -0.000000000         0.251040015
    -0.000000000        -0.000000000         0.748960045
     0.251040015         0.250000000         0.500000000
     0.748960045         0.250000000         0.500000000
     0.000000000         0.375519977         0.500000000
     0.000000000         0.124479993         0.500000000
     0.000000000         0.250000000         0.751039955
     0.000000000         0.250000000         0.248959985
     0.751039955        -0.000000000         0.500000000
     0.248959985        -0.000000000         0.500000000
     0.500000000         0.125520007         0.500000000
     0.500000000         0.874480023         0.500000000
     0.500000000         0.000000000         0.751039955
     0.500000000        -0.000000000         0.248959985
     0.751039955         0.250000000         0.000000000
     0.248959985         0.250000000         0.000000000
     0.500000000         0.375519977         0.000000000
     0.500000000         0.124479993         0.000000000
     0.500000000         0.250000000         0.251040015
     0.500000000         0.250000000         0.748960045
     0.251040015         0.500000000         0.000000000
     0.748960045         0.500000000         0.000000000
    -0.000000000         0.500000000         0.748960045
    -0.000000000         0.500000000         0.251040015
     0.251040015         0.750000000         0.500000000
     0.748960045         0.750000000         0.500000000
     0.000000000         0.750000000         0.248959985
     0.000000000         0.750000000         0.751039955
     0.751039955         0.500000000         0.500000000
     0.248959985         0.500000000         0.500000000
     0.500000000         0.500000000         0.248959985
     0.500000000         0.500000000         0.751039955
     0.751039955         0.750000000         0.000000000
     0.248959985         0.750000000         0.000000000
     0.500000000         0.750000000         0.748960045
     0.500000000         0.750000000         0.251040015
     0.500000000         0.000000000         0.000000000
    -0.000000000         0.250000000         0.000000000
    -0.000000000         0.750000000         0.000000000
    -0.000000000        -0.000000000         0.500000000
     0.500000000         0.250000000         0.500000000
    -0.000000000         0.500000000         0.500000000
     0.500000000         0.750000000         0.500000000
     0.500000000         0.500000000         0.000000000
     0.000000000         0.000000000         0.000000000
    -0.000000000         0.250000000         0.500000000
     0.500000000        -0.000000000         0.500000000
     0.500000000         0.250000000         0.000000000
    -0.000000000         0.500000000         0.000000000
    -0.000000000         0.750000000         0.500000000
     0.500000000         0.500000000         0.500000000
     0.500000000         0.750000000         0.000000000
0.63229694	0.06317299	0.12634598
0.63229694	0.56912395	0.12634598
0.12634598	0.31614847	0.12634598
0.12634598	0.82209937	0.12634598
0.12634598	0.06317299	0.63229694
0.12634598	0.56912395	0.63229694
0.63229694	0.31614847	0.63229694
0.63229694	0.82209937	0.63229694
0.63443423	0.06319877	0.12173252
0.62919973	0.56661486	0.12669379
0.12790414	0.3110498	0.12284554
0.11798388	0.82589398	0.12184796
0.11858838	0.06144335	0.63581419
0.13293064	0.56913566	0.62528036
0.63118677	0.31947371	0.63312207
0.6398911	0.82157938	0.63240411
0.62983004	0.06334751	0.12605292
0.62352077	0.56672479	0.12550666
0.1248257	0.31387332	0.11965137
0.11954164	0.8250368	0.12035423
0.1253444	0.05980719	0.63799838
0.13163032	0.56823716	0.62833066
0.63144344	0.31705968	0.63177833
0.63125842	0.8221637	0.63398915
0.62620065	0.06253353	0.12719074
0.61949406	0.56894472	0.12371606
0.12028348	0.31863079	0.12152076
0.12590564	0.82097304	0.12341917
0.13373638	0.0593585	0.63544573
0.12522748	0.56669092	0.6377655
0.6291987	0.31368627	0.6307381
0.61529814	0.82162694	0.63436272
0.62722521	0.06334585	0.12550985
0.61783982	0.56487252	0.12090312
0.12197031	0.31577628	0.1247861
0.12195142	0.81785581	0.12437245
0.13466359	0.05891243	0.63632422
0.12162283	0.56804566	0.6369422
0.63081589	0.3136611	0.6305698
0.61382151	0.82118848	0.63374897
0.63293476	0.06366368	0.12518242
0.61930378	0.55846189	0.12213907
0.12508697	0.3069655	0.12694751
0.11360556	0.81923259	0.12223617
0.12503863	0.05851192	0.64026686
0.12650957	0.56987007	0.63058242
0.62947204	0.31755857	0.63458781
0.62563939	0.8197529	0.63747738
0.63788539	0.06139133	0.12890109
0.61866271	0.55996184	0.12637986
0.12598621	0.30392541	0.12533557
0.11259288	0.82327816	0.11888172
0.12024294	0.0587272	0.63889412
0.13027943	0.56963448	0.62425153
0.62474035	0.31927431	0.64033068
0.63129648	0.81781487	0.64061917
0.63802568	0.05918149	0.13191594
0.61403547	0.56460587	0.1272728
0.12503611	0.31007183	0.11815015
0.12099125	0.82377216	0.11785133
0.13086382	0.05804551	0.63185401
0.12423266	0.56781137	0.6196173
0.62861013	0.31457469	0.64034238
0.62151409	0.81910411	0.6379376
0.63110022	0.05722719	0.12521527
0.61096558	0.56568577	0.12641572
0.11903151	0.31693358	0.11422289
0.12910238	0.81836647	0.122597
0.13896307	0.05896437	0.62287805
0.12309718	0.56322373	0.62577059
0.63518632	0.31114373	0.63265406
0.61068699	0.82158632	0.64008091
0.62570943	0.05876698	0.11182478
0.61064702	0.56090739	0.12224987
0.11915446	0.31655741	0.11149664
0.11079342	0.8123048	0.12312121
0.13334559	0.05866943	0.62186631
0.12447185	0.56051846	0.62445578
0.64350004	0.31334785	0.61948026
0.61424926	0.82153183	0.64824343
0.63269292	0.06070925	0.10594258
0.61508598	0.56133141	0.12148248
0.12328485	0.30909815	0.10900447
0.09359986	0.81446013	0.11903565
0.1255355	0.05605163	0.62824907
0.12641905	0.56209198	0.61366588
0.64881736	0.31491806	0.61320642
0.63108169	0.81856804	0.64924244
0.6442928	0.05608926	0.12233749
0.62379612	0.57002983	0.12887185
0.11927071	0.30420112	0.1121017
0.10694045	0.82364022	0.12018477
0.12812571	0.0557326	0.630687
0.13075645	0.56219008	0.60945658
0.6441475	0.31164607	0.6234004
0.639402	0.81427599	0.636992
0.64245238	0.05443059	0.13919159
0.63064159	0.57810341	0.13190511
0.11735398	0.31078049	0.1135356
0.11917186	0.82782685	0.1235228
0.1381995	0.05604158	0.62742982
0.12324373	0.56135696	0.6106273
0.64287654	0.3054614	0.63279539
0.63125199	0.81347888	0.62333583
0.63483309	0.05776812	0.12550315
0.63188382	0.57420067	0.13215151
0.12398172	0.31480692	0.11269279
0.11516839	0.81889059	0.13092419
0.13936428	0.05855628	0.61937331
0.1192501	0.56086305	0.61853499
0.64980079	0.30507398	0.62488596
0.61900237	0.81441686	0.62658131
0.63471973	0.06292618	0.10502311
0.62691797	0.56279877	0.13409355
0.13538222	0.31484549	0.1107059
0.10052862	0.80611571	0.14380091
0.13108908	0.06083199	0.61627779
0.12776231	0.56064745	0.62267589
0.66004609	0.31087258	0.61148472
0.61736174	0.81545188	0.64284441
0.64561214	0.06587082	0.10844016
0.62399272	0.56030151	0.13767233
0.13811092	0.31536842	0.10390444
0.10068123	0.80719187	0.15202471
0.12364002	0.05936826	0.61982808
0.1345194	0.5626734	0.61711749
0.6679234	0.31212983	0.60680207
0.623379	0.81282443	0.64992935
0.6496652	0.06233216	0.12839952
0.63285361	0.57583683	0.14159305
0.12714956	0.31645456	0.10547576
0.12387047	0.82164326	0.15045284
0.1232165	0.06450622	0.62805305
0.13484258	0.56352121	0.61317474
0.66358848	0.30643003	0.62842028
0.62746458	0.80797152	0.63999319
0.64507303	0.05889914	0.14659665
0.63748691	0.58535917	0.12551032
0.12386255	0.31914878	0.1041968
0.14480243	0.82627024	0.14373956
0.12975808	0.06649921	0.6362441
0.12320071	0.56343905	0.61195582
0.65388632	0.2995392	0.63951254
0.62520931	0.81380445	0.62724866
0.64510379	0.06309259	0.14208932
0.63533783	0.57735094	0.11219904
0.13485962	0.31690607	0.10485476
0.13483818	0.81986945	0.14199969
0.13668516	0.05978713	0.64081571
0.11511088	0.5625371	0.62018583
0.64551466	0.30019117	0.62630832
0.62373042	0.8183344	0.63039794
0.65603031	0.06781406	0.12481779
0.63592611	0.56489772	0.11451408
0.14451562	0.310718	0.11309006
0.1096306	0.81537146	0.14471573
0.14027844	0.05705438	0.64028632
0.11757587	0.56267781	0.63841107
0.64151386	0.30531586	0.62393418
0.62701323	0.81315694	0.63775695
0.66838237	0.07104688	0.12044813
0.64136404	0.56242595	0.11622741
0.14850136	0.31116724	0.11356455
0.09298985	0.818971	0.14831823
0.13971034	0.05561876	0.63315952
0.12165987	0.56465737	0.64108745
0.64327644	0.31002906	0.63745094
0.62807661	0.80743339	0.63129596
0.66453147	0.0691819	0.12782782
0.64483533	0.57324845	0.11839583
0.14642416	0.31811467	0.11726383
0.1065663	0.8267981	0.14455687
0.13706246	0.0562737	0.62797751
0.12726477	0.55981468	0.63869829
0.64392938	0.31260067	0.65212538
0.62881675	0.805492	0.61992289
0.64690182	0.06298673	0.13477978
0.63872972	0.58222308	0.1150289
0.14394126	0.32474926	0.12376217
0.12616881	0.82730965	0.13356284
0.13901177	0.05839328	0.62643294
0.12992898	0.55543755	0.63508905
0.64164105	0.31083901	0.65075292
0.62575337	0.81340729	0.62036964
0.64965863	0.05905587	0.13412631
0.63409405	0.57430152	0.11708914
0.14712959	0.32010153	0.12705836
0.13723426	0.81979958	0.13284372
0.14178168	0.05630825	0.62513431
0.13379391	0.55871696	0.62687453
0.64167072	0.30951227	0.63146148
0.62488595	0.82285338	0.63407776
0.6599724	0.05918294	0.12178693
0.6390589	0.56183513	0.12629828
0.14520973	0.31059621	0.12954558
0.13478246	0.81744396	0.13421633
0.14527156	0.05484961	0.62434541
0.14146061	0.56169022	0.63018984
0.64123911	0.31064189	0.62451013
0.63113005	0.82327349	0.64505497
0.65659978	0.06153838	0.11330321
0.64412492	0.56013136	0.1289745
0.13662971	0.31379593	0.13162644
0.12736562	0.82355839	0.13212716
0.14746582	0.05628048	0.6227622
0.13427993	0.56364446	0.63715439
0.63838486	0.3096126	0.63261699
0.63579654	0.82016667	0.64619242
0.64517887	0.06252355	0.11268364
0.64715234	0.56956956	0.12532665
0.13862098	0.32081399	0.13477793
0.12293506	0.83131163	0.12990599
0.13943763	0.05812282	0.62105346
0.12190092	0.56623149	0.63191458
0.635671	0.31013548	0.63909849
0.63783374	0.81683168	0.64046952
0.63586854	0.06227709	0.11485084
0.64651283	0.57645995	0.11710825
0.14332247	0.32073389	0.13553662
0.12220371	0.8334773	0.12828025
0.13396571	0.05903516	0.6220829
0.12135442	0.56519246	0.63212284
0.63262974	0.30947106	0.63429124
0.63877137	0.81698479	0.63530552
0.63586479	0.06339509	0.11617679
0.64429056	0.56968294	0.11346446
0.14075035	0.31788154	0.12852801
0.12509041	0.82956657	0.13279984
0.13364175	0.05499768	0.62431075
0.13174313	0.56351599	0.63994422
0.63220269	0.30832928	0.62551785
0.63302459	0.81987322	0.63721088
0.64296319	0.06417137	0.10756641
0.64445122	0.56240209	0.12281047
0.13241046	0.3167472	0.12324438
0.13021162	0.82349265	0.13399862
0.13397314	0.05201426	0.62284561
0.13692828	0.56256719	0.64753056
0.63355645	0.31014914	0.62430062
0.62980121	0.82049362	0.63962492
0.6446794	0.06450955	0.10364147
0.64230746	0.56539934	0.13248597
0.12561811	0.31998355	0.12470261
0.13198539	0.82172861	0.12646087
0.1370926	0.05518577	0.61904643
0.12923742	0.56278948	0.6477137
0.63688614	0.31117943	0.62970162
0.63412673	0.81913028	0.63578451
0.63604901	0.06389954	0.11037951
0.63701728	0.57121017	0.1339076
0.13080842	0.32370985	0.12897447
0.13617004	0.82319301	0.11966461
0.13532282	0.05940845	0.6184891
0.1236365	0.56515646	0.63863423
0.63887918	0.31251013	0.63077189
0.6357039	0.81855827	0.63204748
0.62588265	0.06098245	0.11751816
0.63746375	0.5710743	0.12546439
0.13976004	0.32112939	0.1325285
0.14214082	0.82588354	0.11936373
0.13119254	0.06473523	0.62208344
0.13029246	0.56735955	0.63217322
0.63852284	0.31397469	0.62426096
0.63063699	0.81911926	0.63177131
0.62529253	0.05847109	0.11811778
0.64009637	0.56422338	0.11974085
0.13568896	0.31423448	0.12564755
0.14075645	0.82425627	0.12311372
0.12879241	0.06461	0.62757576
0.13520514	0.56840858	0.63234846
0.63995329	0.31335485	0.61463135
0.62682194	0.82144636	0.63471484
0.63165755	0.05982344	0.1135806
0.63979018	0.56199884	0.12710382
0.12417578	0.31070653	0.11917229
0.13631431	0.81852988	0.12851364
0.12755594	0.06142924	0.63076302
0.13198857	0.5669664	0.63689675
0.64114251	0.31375449	0.6137318
0.62646969	0.8206099	0.63659768
0.63289161	0.0629862	0.11694672
0.63814811	0.56892218	0.13188414
0.11817062	0.31432996	0.12488702
0.13188586	0.81789179	0.13043492
0.13014151	0.06527497	0.62933833
0.12279398	0.56657621	0.63883804
0.64001977	0.31572613	0.62459768
0.63018899	0.81599593	0.6345492
0.62333122	0.06373841	0.1211333
0.63215985	0.57364319	0.12522512
0.12555874	0.31901558	0.12676611
0.12706012	0.82179185	0.12912793
0.12953735	0.0697075	0.62780449
0.11989273	0.57007774	0.62909442
0.63487954	0.31852506	0.6330178
0.63463814	0.81401917	0.63071811
0.61477859	0.06106825	0.11796908
0.62974937	0.57089243	0.11675509
0.13725338	0.31760255	0.12371388
0.1249715	0.82531749	0.12907644
0.12566812	0.06940594	0.63379548
0.12888714	0.57054288	0.62236956
0.62932863	0.31978389	0.62896
0.63575729	0.81767829	0.62456175
0.62104146	0.05904658	0.11619009
0.63202471	0.56382287	0.11859662
0.13973024	0.31140125	0.11803291
0.12058967	0.822647	0.12907115
0.12468652	0.06560692	0.64316383
0.13475855	0.56924115	0.62697558
0.63178677	0.31543778	0.62179709
0.6331639	0.82321758	0.62002001
0.63811951	0.06006436	0.11919245
0.63130697	0.56116264	0.13324508
0.1270688	0.30825453	0.11844338
0.11572024	0.81444638	0.12887538
0.12052367	0.06404537	0.64318272
0.12855478	0.57093901	0.63372925
0.63613843	0.31365703	0.62218979
0.62824287	0.82527325	0.61950788
0.64339724	0.06384683	0.12863889
0.62849762	0.56606199	0.14112143
0.11457698	0.3109292	0.12750899
0.11577216	0.81335826	0.12953525
0.11994821	0.06855709	0.6351527
0.11666911	0.57212326	0.63780446
0.63682994	0.31743836	0.63378056
0.62552013	0.82360751	0.6200415
0.62944047	0.06643519	0.13880085
0.62482205	0.57029029	0.13277102
0.12039769	0.31539518	0.12801589
0.12295676	0.81788493	0.1286455
0.11956814	0.07041002	0.63227488
0.11056419	0.57444683	0.63406897
0.63622165	0.32169721	0.63895461
0.62645314	0.82366537	0.62598177
0.61874588	0.06037142	0.14201437
0.62814227	0.56875487	0.12330032
0.13527796	0.31270457	0.12034052
0.13376476	0.82113506	0.12534291
0.11079734	0.06755398	0.63731982
0.12408606	0.57796904	0.62213283
0.63064276	0.32358017	0.62854303
0.6269122	0.82672953	0.63086521
0.62967827	0.05527343	0.14856036
0.63744701	0.56452461	0.12354064
0.12721108	0.30417116	0.11587017
0.13340564	0.81833407	0.12416455
0.10951906	0.06288046	0.64462856
0.13935898	0.57583234	0.61962735
0.63015547	0.31752914	0.62591668
0.62891893	0.83288106	0.62814057
0.64238505	0.05983289	0.15757775
0.63716055	0.56381862	0.13230592
0.10188395	0.30603863	0.11934579
0.11486831	0.81021584	0.12608392
0.11446777	0.060397	0.64236987
0.13917629	0.5718553	0.6238092
0.63279839	0.3132508	0.64160534
0.63162574	0.83658481	0.63025283
0.63602603	0.06582263	0.16158661
0.62765979	0.57347204	0.13774291
0.09605963	0.31929739	0.12575767
0.0960297	0.8121851	0.11933691
0.12051474	0.0637185	0.63110654
0.12741803	0.57273994	0.63075015
0.62235117	0.31944828	0.66181085
0.63392079	0.83559946	0.63691842
0.61740156	0.06836515	0.15912748
0.61745127	0.57950756	0.13184182
0.11700021	0.32494263	0.12280943
0.08924343	0.8232819	0.11094803
0.12322124	0.06714961	0.62810098
0.1205045	0.57551524	0.63123636
0.61675107	0.32827378	0.66515416
0.64557173	0.83525978	0.64354689
0.61309849	0.06657556	0.14589356
0.61124472	0.57639532	0.12247329
0.12616332	0.32016153	0.11136871
0.09505848	0.83112478	0.11816878
0.11727769	0.06325353	0.63995341
0.13497838	0.57515162	0.62956109
0.61923506	0.33129179	0.65338213
0.64961105	0.83509419	0.64546494
0.63124478	0.0631138	0.14676387
0.61323679	0.57514155	0.1253467
0.10478889	0.31150834	0.10821317
0.10601653	0.8292151	0.12406276
0.11553965	0.05773843	0.65568244
0.14682813	0.5705445	0.63168831
0.61866307	0.32531954	0.64873308
0.64635526	0.83519852	0.63671331
0.64280845	0.06576786	0.16846612
0.6110984	0.5733544	0.14112109
0.09029624	0.30938925	0.11991237
0.11571499	0.81980579	0.12433812
0.12145462	0.05638114	0.65794727
0.13174723	0.5656371	0.62625378
0.61401404	0.319003	0.65327337
0.64257873	0.83540716	0.62857851
0.63243517	0.07122658	0.18030723
0.60134741	0.57558049	0.1429704
0.11044475	0.31471722	0.13989584
0.1246786	0.81254659	0.12492674
0.1244974	0.06264012	0.64669237
0.10933841	0.56977969	0.62843845
0.60884414	0.32544355	0.65456129
0.63540313	0.83448278	0.6308302
0.61340982	0.07336369	0.16810263
0.59330365	0.57635051	0.13113464
0.13190285	0.32228974	0.15226387
0.12801874	0.81400086	0.12637256
0.12351954	0.06790344	0.64043245
0.09990481	0.58074601	0.63119111
0.61014878	0.33583682	0.65012912
0.64105825	0.83170651	0.63563483
0.60172419	0.06927334	0.14882052
0.59315304	0.57200589	0.12009241
0.12634407	0.32485071	0.1427936
0.12889843	0.82168542	0.12593291
0.11287544	0.06647587	0.64725126
0.11323279	0.58819721	0.62329054
0.61159417	0.33934121	0.64323533
0.64992631	0.82850697	0.63518277
0.60828975	0.06182201	0.14281392
0.60419677	0.57279215	0.11309822
0.09047345	0.32336811	0.13051702
0.12979744	0.82985039	0.11808184
0.10591395	0.06541633	0.65716676
0.12413285	0.58318213	0.62109393
0.6077369	0.3306434	0.6389712
0.65023563	0.83160931	0.62597287
0.62045551	0.06227514	0.14763145
0.61260132	0.57474241	0.11656764
0.06988596	0.3215942	0.13026713
0.12631343	0.8318721	0.10890225
0.11498462	0.06524069	0.65653826
0.11942668	0.5714309	0.63114436
0.60425559	0.321644	0.64511952
0.64822847	0.83345726	0.63011866
0.62811528	0.06945489	0.14704183
0.60964073	0.57583119	0.12413878
0.08023131	0.32059876	0.14181412
0.13220575	0.82776649	0.1118224
0.12362431	0.06614304	0.64625983
0.10631861	0.56574058	0.64115723
0.60727565	0.32596622	0.65825046
0.64389114	0.83038784	0.64195392
0.6245967	0.07382202	0.13847868
0.60749007	0.57484287	0.12989914
0.09610972	0.32296968	0.15230751
0.13106649	0.82698931	0.12344539
0.1246194	0.0708392	0.64486187
0.10116864	0.57237117	0.64150421
0.61439488	0.3322313	0.66776495
0.6433306	0.82574972	0.63917972
0.61639089	0.07171224	0.12765526
0.60986486	0.57074073	0.13227987
0.10501412	0.32578877	0.14891545
0.12580798	0.82952322	0.13078082
0.11451215	0.07392569	0.64943388
0.10889363	0.58217187	0.6307453
0.61853229	0.32844491	0.66582418
0.64659238	0.82178035	0.63071116
0.61838929	0.06331091	0.13109189
0.61644612	0.56894339	0.12745803
0.0984672	0.3237169	0.14239987
0.1330785	0.83172748	0.12399789
0.10052561	0.07382485	0.6515732
0.11442329	0.58251478	0.62157494
0.61285569	0.32098436	0.65884133
0.64941681	0.82536469	0.62249312
0.62503456	0.06158369	0.13966078
0.62155928	0.56859183	0.11988146
0.09080689	0.31949754	0.14494826
0.14151253	0.8279381	0.11214518
0.09845336	0.0748104	0.64439834
0.11373238	0.57507356	0.61985159
0.60750019	0.32135094	0.64969643
0.64565749	0.83224731	0.62530869
0.62673168	0.06810059	0.13876979
0.61972319	0.56925861	0.12243821
0.09892649	0.31734778	0.1492084
0.14180219	0.81817116	0.10872115
0.10348646	0.07530751	0.63646322
0.11123065	0.57179639	0.62263933
0.61451579	0.32848205	0.64623791
0.63545727	0.83452169	0.63407742
0.62415245	0.0694848	0.13255383
0.61791202	0.57014918	0.13064685
0.10970564	0.31763339	0.14751208
0.13674779	0.81738209	0.11598125
0.1078569	0.07542138	0.64017564
0.1119337	0.57701936	0.62806773
0.6270292	0.33057855	0.65295977
0.62874908	0.83301629	0.63177215
0.61343716	0.0659401	0.13033596
0.62049721	0.56826067	0.13395124
0.11354171	0.31964749	0.14073006
0.12516394	0.82455321	0.11914219
0.11112048	0.07655954	0.64773581
0.12330136	0.58319745	0.63249585
0.63278607	0.32417923	0.6517807
0.63106972	0.8298738	0.62526888
0.60796329	0.06285318	0.13300348
0.62808654	0.57169749	0.12998523
0.11015998	0.31842349	0.13797251
0.1217163	0.82633808	0.11246075
0.10891182	0.0760175	0.65152586
0.1318674	0.58231982	0.63443045
0.62646382	0.31806447	0.6432278
0.63872729	0.82917713	0.62567546
0.61219126	0.06377257	0.13756576
0.63394641	0.57254084	0.12552662
0.10614634	0.31338877	0.1426434
0.1256943	0.82157941	0.10717053
0.1117582	0.07319179	0.65006251
0.12730545	0.57674284	0.63606497
0.61745055	0.31919622	0.63808043
0.6400665	0.83292168	0.63102883
0.61643427	0.06773941	0.13863135
0.63357714	0.56856009	0.12937065
0.11274305	0.31358243	0.14396407
0.13039649	0.81634675	0.11245138
0.11931273	0.07047004	0.64302184
0.12482482	0.57576065	0.6351921
0.61454395	0.32740214	0.64076285
0.63153079	0.83427141	0.6297061
0.61580149	0.06849789	0.13720997
0.63170217	0.56977407	0.13522949
0.12021616	0.3167376	0.13996974
0.13325221	0.81786878	0.12194447
0.1209302	0.07069399	0.64275239
0.12913791	0.57940319	0.63894556
0.61837623	0.33163456	0.64813959
0.62593271	0.8323769	0.6187899
0.6140646	0.06486486	0.13528675
0.63166088	0.57123312	0.13813895
0.12072674	0.31641773	0.13408757
0.13047877	0.82412067	0.12171321
0.1206163	0.07196108	0.64755283
0.13563796	0.58001972	0.64607368
0.61933286	0.32834899	0.64594746
0.63387275	0.82977715	0.61122087
0.61586851	0.05832327	0.13483658
0.63620561	0.57160662	0.13659653
0.11901534	0.31325858	0.12809547
0.13127974	0.82613791	0.10971909
0.11368651	0.07006057	0.64637758
0.13572451	0.57663172	0.64404678
0.61174189	0.32384834	0.63465733
0.6451537	0.83034596	0.61341158
0.61929604	0.05437752	0.13786086
0.64053991	0.57024683	0.13374218
0.12101621	0.31169557	0.12499562
0.13715149	0.82173352	0.1101413
0.11153303	0.06885536	0.63997247
0.1293668	0.57344143	0.63927148
0.60528488	0.32427675	0.62694672
0.64648583	0.83368655	0.6221693
0.62484213	0.05683091	0.13442696
0.63670036	0.56621924	0.13760241
0.12859597	0.31395314	0.1268935
0.14141801	0.81708232	0.12709555
0.124003	0.06781744	0.63349156
0.12634728	0.57463695	0.63825596
0.6119939	0.32786695	0.6276286
0.64056909	0.83043717	0.62651529
0.63129882	0.06129386	0.1308841
0.63700133	0.56504256	0.1391029
0.1316431	0.31711723	0.13295727
0.14386555	0.81908255	0.13641222
0.12943545	0.06661107	0.6320831
0.12741742	0.57770458	0.64109233
0.62408469	0.32653171	0.63715071
0.64097622	0.82559915	0.6181894
0.6343122	0.06217625	0.13470991
0.64591701	0.56619209	0.132775
0.12910009	0.31736821	0.137801
0.133337	0.82568347	0.12995827
0.12561086	0.06841552	0.63231866
0.13234363	0.57688903	0.64639295
0.62340709	0.3202342	0.64691094
0.64962771	0.82475446	0.61172995
0.63461547	0.05750286	0.12826749
0.65018844	0.56833418	0.1243479
0.12866767	0.31497432	0.13094455
0.12437252	0.82683358	0.12342407
0.12016225	0.06762233	0.6248328
0.13596533	0.572009	0.64496343
0.6189597	0.31594183	0.64357134
0.65207075	0.82484578	0.61864052
0.63621146	0.05340207	0.11969147
0.65058395	0.57011713	0.12033423
0.13046471	0.31355143	0.12074219
0.13149812	0.82231446	0.12647393
0.12030557	0.06342801	0.61459312
0.13071533	0.56705382	0.64055012
0.61897275	0.31489442	0.62902452
0.64246352	0.8246345	0.6312652
0.64040888	0.05972805	0.11983695
0.64922001	0.56836953	0.12684965
0.13224454	0.31659623	0.11751213
0.13584454	0.81889153	0.13763654
0.13036489	0.05982102	0.60923364
0.12093242	0.56540388	0.64015518
0.62790625	0.31660199	0.61824875
0.63287812	0.8198807	0.63650878
0.64661273	0.06846512	0.12357303
0.64265183	0.56623333	0.1332943
0.1332385	0.31968337	0.11623596
0.13517787	0.82191385	0.14157886
0.13679743	0.05762042	0.61036808
0.11282526	0.56474145	0.64185677
0.64742721	0.31372921	0.6194216
0.63012816	0.81244248	0.63377837
0.64779489	0.06867577	0.12473255
0.63961855	0.56452777	0.12902592
0.13393488	0.31640123	0.12007389
0.1256975	0.82796024	0.13514687
0.13347481	0.05929685	0.61382687
0.11203018	0.55978862	0.64350927
0.65965701	0.30567388	0.62901784
0.63361534	0.81001308	0.63616571
0.64033982	0.06382836	0.11860079
0.64414503	0.56263766	0.12027252
0.14165232	0.3102217	0.11425857
0.11820217	0.8273154	0.12983133
0.12969432	0.06061321	0.61168249
0.12129851	0.55730097	0.63559123
0.66166382	0.30365869	0.62425821
0.63192833	0.80980661	0.64608185
0.63481213	0.06094011	0.10908363
0.64421112	0.56486209	0.11300705
0.15016407	0.30928593	0.10625834
0.12263401	0.81735316	0.13370335
0.13630328	0.05713546	0.60802115
0.12106628	0.55868462	0.62009366
0.6622861	0.3057616	0.60491484
0.61757738	0.81031141	0.65011182
0.64180553	0.06521959	0.10608877
0.63923203	0.56537053	0.11647538
0.151059	0.31047854	0.10888573
0.12450976	0.81230283	0.14607112
0.15618311	0.05012969	0.61054159
0.11072572	0.55968671	0.61384952
0.66282635	0.30222726	0.59639147
0.60202075	0.80737249	0.64736054
0.65361332	0.06909633	0.10856531
0.63428028	0.56639181	0.12221335
0.14823752	0.31130342	0.11038775
0.11717618	0.8158966	0.15573887
0.16257223	0.04300547	0.61400289
0.10639238	0.55530894	0.61569118
0.66369976	0.29629428	0.61388891
0.59225432	0.8007586	0.64944016
0.66225162	0.06758042	0.10751892
0.63507399	0.56819563	0.10736007
0.15276459	0.31038317	0.10575715
0.10365047	0.8202777	0.14693457
0.15340138	0.04812806	0.61741573
0.11855486	0.54793028	0.61988331
0.66129802	0.29048237	0.63342425
0.58854217	0.79711439	0.66251137
0.66526451	0.06315376	0.09780984
0.64015566	0.56386873	0.0990838
0.16434866	0.30814212	0.09776605
0.0973655	0.8178703	0.1416337
0.15949762	0.05086561	0.61741849
0.13420255	0.54335481	0.62370022
0.66596842	0.28871364	0.62007137
0.5932657	0.79752897	0.67699856
0.66630296	0.05914181	0.09180169
0.63759075	0.56524102	0.10374747
0.17047063	0.30994812	0.08992652
0.10916738	0.81148385	0.14554402
0.17507064	0.04301833	0.62131991
0.13261202	0.54281245	0.62081244
0.67507155	0.28999541	0.5850747
0.60035534	0.79917393	0.67802339
0.66873245	0.06165904	0.10128041
0.63069764	0.56895001	0.10792129
0.17098589	0.3139606	0.08542617
0.11703573	0.80973322	0.15457104
0.1888648	0.03632058	0.625989
0.12878764	0.54209602	0.61905334
0.67051623	0.2901843	0.57775153
0.60721464	0.79901844	0.67289434
0.67219045	0.06667924	0.1095887
0.63105265	0.5678051	0.11584549
0.17221306	0.31231037	0.08418568
0.11513087	0.8159501	0.16484311
0.18763943	0.03409297	0.62417862
0.13547263	0.540846	0.62247634
0.66688163	0.29169993	0.59779673
0.6083173	0.79222657	0.67316523
0.66611957	0.06873213	0.10724831
0.63908571	0.56434555	0.11442472
0.17576497	0.30876627	0.09302434
0.11012475	0.82088622	0.16537374
0.1673465	0.03590047	0.61405185
0.14209852	0.53805529	0.62165864
0.66906047	0.29447678	0.60305671
0.60024565	0.79102938	0.67390429
0.66415748	0.06623039	0.10041148
0.64740791	0.56165509	0.11149627
0.18394051	0.3097482	0.10353755
0.10636026	0.81710089	0.16190494
0.15440927	0.03795833	0.60454407
0.14702361	0.53701186	0.61039653
0.67521616	0.29498663	0.5845427
0.59884447	0.79462012	0.66730517
0.67090394	0.05780602	0.0910781
0.64292494	0.56472348	0.117886
0.18312044	0.31316344	0.10282377
0.10909648	0.81107528	0.15583099
0.15804897	0.03258858	0.60228748
0.14506589	0.54151746	0.60473727
0.68971372	0.29201032	0.57091672
0.60747259	0.79590273	0.65716401
0.67518541	0.05082489	0.08381645
0.63421022	0.57189724	0.12359416
0.17260221	0.31667171	0.09762548
0.11124688	0.80862532	0.14607223
0.16720712	0.02919592	0.6076813
0.1382264	0.54263521	0.61086469
0.68398	0.28785292	0.57619197
0.61585392	0.79660749	0.65050076
0.67613485	0.05154905	0.08302603
0.63738292	0.57528555	0.11670015
0.1689373	0.31487169	0.09282628
0.10523747	0.81300951	0.14236833
0.1663909	0.03202313	0.61272514
0.13641673	0.54104874	0.61691853
0.66657559	0.28680763	0.5954831
0.61802187	0.7975437	0.65254942
0.67551845	0.0578685	0.08756114
0.64809501	0.57470233	0.10973225
0.16850682	0.3110545	0.09269466
0.10039243	0.82079483	0.14565293
0.15346019	0.0371479	0.60972698
0.13813268	0.53947295	0.61917391
0.66821205	0.29059691	0.61387513
0.61186758	0.79903142	0.6541354
0.67233777	0.06545209	0.09268306
0.64596234	0.57004213	0.11430294
0.16877738	0.31080943	0.0973537
0.10193468	0.82406342	0.15054674
0.14758212	0.04074402	0.60211801
0.13968499	0.53937383	0.61924815
0.67313949	0.29326311	0.61093177
0.60969303	0.80014051	0.64537834
0.66945349	0.06697065	0.09419813
0.63922646	0.56565382	0.11647902
0.16885522	0.31149386	0.09575592
0.10856237	0.82277334	0.1523193
0.15674469	0.03860461	0.59752793
0.13966584	0.54530383	0.61796137
0.67791435	0.29457444	0.59023352
0.61842519	0.80071641	0.63074863
0.66853396	0.06095116	0.08951458
0.64439427	0.5649208	0.11500778
0.16234299	0.31220803	0.09205454
0.1085489	0.82044132	0.14381007
0.16723555	0.03535373	0.60250173
0.13481446	0.54864602	0.61875538
0.67187405	0.29639154	0.57780505
0.61890368	0.80145025	0.62582285
0.66896537	0.05621773	0.09177254
0.64849415	0.5649599	0.11495561
0.1572669	0.31311559	0.0939813
0.10091597	0.81911863	0.13371227
0.1658504	0.03902794	0.60797291
0.12946837	0.54762635	0.62054545
0.66320274	0.29835145	0.58808424
0.61077495	0.80310007	0.63411889
0.66976046	0.05884673	0.10301879
0.65119699	0.56649327	0.11732358
0.15882149	0.3125458	0.098096
0.09973892	0.82193456	0.13164127
0.14649747	0.04716722	0.60929331
0.13056997	0.54907702	0.62199743
0.66619215	0.30062893	0.60923994
0.60868799	0.80450307	0.64347354
0.66907	0.06429501	0.11208796
0.64946779	0.56774647	0.11802619
0.16318548	0.31446836	0.10133598
0.10254225	0.82096045	0.13115964
0.13879557	0.0539003	0.60802349
0.13412005	0.55325292	0.62125177
0.66536274	0.30109682	0.62264648
0.61492751	0.80475199	0.64361671
0.66489161	0.06423622	0.10928084
0.64207062	0.56619516	0.11737895
0.16028785	0.31683885	0.10227862
0.10683152	0.81843182	0.13460845
0.15130489	0.05301176	0.61102332
0.13303787	0.55943906	0.62561764
0.66047101	0.29975925	0.61726954
0.62032796	0.8046446	0.63181215
0.66025615	0.05636427	0.10044225
0.63830828	0.56571139	0.11694009
0.14894033	0.31650136	0.10181392
0.10966018	0.81928023	0.13669917
0.15579288	0.04865709	0.62064108
0.12881016	0.56353939	0.63510514
0.65041483	0.30186286	0.60711685
0.61725785	0.80570151	0.62197715
0.65903542	0.05475811	0.10024117
0.63894024	0.56689298	0.11698731
0.14079774	0.31605304	0.10289715
0.10685398	0.82058969	0.13701959
0.14556363	0.04995294	0.62578369
0.12463131	0.56253382	0.63636889
0.63667148	0.30596159	0.6066649
0.60992687	0.80691518	0.62501842
0.65700228	0.06225049	0.11650716
0.64012361	0.56856631	0.12215848
0.14110014	0.31527681	0.10810333
0.10818614	0.82336251	0.13875735
0.13241984	0.05471158	0.62108956
0.12251245	0.56249125	0.63523772
0.63449644	0.30991747	0.61694987
0.60560638	0.80995412	0.63296822
0.65253573	0.06639882	0.13063751
0.64012974	0.56779634	0.13067114
0.14512715	0.31780902	0.1168574
0.11740376	0.82280355	0.13846505
0.13487116	0.06014322	0.6190817
0.12618708	0.5643671	0.63340717
0.63769579	0.31204152	0.62814718
0.60952842	0.81579122	0.63072761
0.64608547	0.06328081	0.1343163
0.63795305	0.56441408	0.13477868
0.14323649	0.32358101	0.12265368
0.12665066	0.81996139	0.13167161
0.1480222	0.06216364	0.62275819
0.13224517	0.56763356	0.63187525
0.64166036	0.31316197	0.63047509
0.62220355	0.82195612	0.62160844
0.64032899	0.06046205	0.12741354
0.63432574	0.56656577	0.13355361
0.12848101	0.32213489	0.12631671
0.13277662	0.82160008	0.12280382
0.14804611	0.06187432	0.6293819
0.1330213	0.57200975	0.63804211
0.64237736	0.31655334	0.62590891
0.63532292	0.82474723	0.62027715
0.6408994	0.06225326	0.12607192
0.63025176	0.57338108	0.13248692
0.11643868	0.31609848	0.13469776
0.12907687	0.82399101	0.11649838
0.13445565	0.06494399	0.63382364
0.12628848	0.57361746	0.64674151
0.6342967	0.3199565	0.62891136
0.64184091	0.82458531	0.63093668
0.63374415	0.06780009	0.13329936
0.62806575	0.5761975	0.13262633
0.11653516	0.31373157	0.1398819
0.1218358	0.82668934	0.11549452
0.11812821	0.07095187	0.63215653
0.12232358	0.57442187	0.64974616
0.6261985	0.32162351	0.64643527
0.64229323	0.825799	0.63493006
0.6253975	0.07158767	0.13774464
0.62482498	0.57447432	0.13509534
0.12008673	0.31807195	0.14092227
0.12864566	0.82928892	0.11609677
0.10967084	0.07488262	0.63422164
0.12886555	0.57677847	0.64548828
0.61743317	0.32260936	0.66381411
0.63995764	0.82924123	0.62387182
0.61935559	0.07086035	0.13109995
0.62030924	0.56960287	0.13961281
0.11439816	0.32253527	0.14157321
0.14121446	0.82958767	0.11518633
0.1151651	0.07463718	0.64643567
0.13151923	0.57827423	0.64021131
0.61264708	0.3229464	0.66105267
0.64175754	0.83447472	0.61882772
0.61246915	0.06667021	0.12154725
0.62245086	0.56828413	0.13470248
0.09853456	0.32077354	0.14115128
0.14639966	0.83087115	0.11583665
0.12290602	0.07188233	0.65450339
0.12779058	0.58019794	0.63893123
0.61653723	0.32579162	0.65024169
0.65074625	0.8377176	0.62288058
0.60860795	0.06405647	0.12593192
0.62660962	0.57101567	0.12804993
0.09430621	0.31862334	0.146979
0.14268064	0.83230009	0.11584988
0.12254449	0.07568447	0.64938127
0.12255704	0.5811675	0.64032587
0.60983866	0.33154857	0.65017896
0.65641928	0.8368709	0.62820508
0.60037406	0.06418269	0.14769733
0.62740764	0.57226635	0.13215072
0.10474865	0.32092088	0.158304
0.14670185	0.8315308	0.11516627
0.1151865	0.08309233	0.64138781
0.11822101	0.58204598	0.64128886
0.60486512	0.33650469	0.65959004
0.65602744	0.83774449	0.62533445
0.59035093	0.06439142	0.16076544
0.62639594	0.57178517	0.13885482
0.10869061	0.32467077	0.16550529
0.16260083	0.82855418	0.11155244
0.10787082	0.08821964	0.64282723
0.11822385	0.58555328	0.63741278
0.60894415	0.33905918	0.67151792
0.65589346	0.84058437	0.61463119
0.58529603	0.06444352	0.1544453
0.62404222	0.57112617	0.13845323
0.10073527	0.32477309	0.16475574
0.16762695	0.82344745	0.10353796
0.10954635	0.08656434	0.65294623
0.11702972	0.59008629	0.63068384
0.60679939	0.33660156	0.67610159
0.66114486	0.84279763	0.61343723
0.58004086	0.06430887	0.14168565
0.62381943	0.57165295	0.13223888
0.08311299	0.31940476	0.15772408
0.15688147	0.82212501	0.1048611
0.10770603	0.08196143	0.66442168
0.1106915	0.59428524	0.62931972
0.60873845	0.3367897	0.66842238
0.66752767	0.84319934	0.62563552
0.57660624	0.06489826	0.15081929
0.62367795	0.57307466	0.12417115
0.07599479	0.31666172	0.15279768
0.14665177	0.82283436	0.11278835
0.09553423	0.08248378	0.66974806
0.10501529	0.59528107	0.63293936
0.60505436	0.34289337	0.65716307
0.66533039	0.84225544	0.63845652
0.57951956	0.06657688	0.17583855
0.62135066	0.57293752	0.11866098
0.08495939	0.32274969	0.15628107
0.14538819	0.82237993	0.11670808
0.08471024	0.08864002	0.67091108
0.10392932	0.59266026	0.63638136
0.59157118	0.34339343	0.65420368
0.65785162	0.84326249	0.64174489
0.58432255	0.06774488	0.18668661
0.62196144	0.57070776	0.11780529
0.08913295	0.3292155	0.16316016
0.15456417	0.8228665	0.11197658
0.07837741	0.09273103	0.668683
0.10991596	0.59192431	0.63769704
0.58646739	0.34255616	0.66038455
0.65510562	0.84751993	0.63257671
0.59015512	0.06772281	0.17601735
0.62426028	0.56725601	0.12050512
0.07645819	0.32687947	0.16707828
0.15890657	0.82045775	0.10219826
0.08145179	0.09433457	0.66711491
0.11696927	0.59450354	0.63491525
0.58916481	0.34305107	0.66940217
0.65561518	0.85519242	0.6215764
0.58746867	0.06732092	0.16673868
0.62557427	0.56676583	0.12887174
0.058265	0.31576554	0.1600097
0.14998894	0.81856322	0.09427398
0.08070158	0.09319697	0.6666831
0.11851868	0.59859561	0.62793723
0.5919546	0.34559628	0.66901968
0.65407306	0.85912815	0.61783793
0.58037862	0.06910706	0.17386501
0.62350436	0.57178822	0.13945836
0.0562034	0.31118886	0.14933335
0.13929666	0.82257065	0.09361394
0.06740098	0.09013277	0.66365727
0.11531998	0.59757759	0.62815942
0.59181726	0.3498164	0.65619208
0.65455851	0.85407377	0.62020179
0.57982011	0.06992959	0.18537257
0.6179089	0.57818109	0.14592146
0.07679164	0.31627264	0.14677445
0.13459651	0.82581176	0.09805242
0.0648393	0.08764325	0.65942863
0.11133494	0.59554873	0.63094319
0.58329919	0.35002393	0.65155212
0.6554354	0.84871113	0.62126121
0.58560148	0.06845662	0.17491883
0.61264297	0.57893087	0.14741772
0.08839946	0.31596289	0.14414667
0.137767	0.82207344	0.10340703
0.07013005	0.08703485	0.65634654
0.11379011	0.59822069	0.62846506
0.57793149	0.34831261	0.66582942
0.65281631	0.85003165	0.61244586
0.59243884	0.06818382	0.15300314
0.61041394	0.57432567	0.1435776
0.07991084	0.30995692	0.14338666
0.14305274	0.81362004	0.11007179
0.07307332	0.08834098	0.65282193
0.11207153	0.5991407	0.62677411
0.58117313	0.34571749	0.67715742
0.64743279	0.85601803	0.60306373
0.59026814	0.06991993	0.15336733
0.61227662	0.57301574	0.14346498
0.06886596	0.3064338	0.14870779
0.14300591	0.81210753	0.1151092
0.07456141	0.08766083	0.65760443
0.1091892	0.59583095	0.62931783
0.5847755	0.34343801	0.66916111
0.64019414	0.85758478	0.60567123
0.58142616	0.07003881	0.17916291
0.61602184	0.57711625	0.14789221
0.06981106	0.3070404	0.14969713
0.13694636	0.81700881	0.11478582
0.07470656	0.08449151	0.66585105
0.12120613	0.58922675	0.63544663
0.58106197	0.3448483	0.65483055
0.63613814	0.84947171	0.61118487
0.58053797	0.06735451	0.19673577
0.6166789	0.57960649	0.14211974
0.08373938	0.31216715	0.14208749
0.12791185	0.82008406	0.11085613
0.08138711	0.0794243	0.65925502
0.12953649	0.58276756	0.63446869
0.57042052	0.34501661	0.65342128
0.63747966	0.84348089	0.60587684
0.58704994	0.06394265	0.18511456
0.61052432	0.5762084	0.14085172
0.09759283	0.31652228	0.13260221
0.12841934	0.81764828	0.10435964
0.09514444	0.0745539	0.65374936
0.12375129	0.58118735	0.62454397
0.56965239	0.34103288	0.66711874
0.64009067	0.84479802	0.59612041
0.59272253	0.06393731	0.15370216
0.60308981	0.56804034	0.14425616
0.09643816	0.31474022	0.12657252
0.1363424	0.81606397	0.10440292
0.10788578	0.0761371	0.6537087
0.11391252	0.58162407	0.61898061
0.58051043	0.3326315	0.66855179
0.64268165	0.84719387	0.59538987
0.59683752	0.0697177	0.13499252
0.60382532	0.56523679	0.13934441
0.08768192	0.31073871	0.13011135
0.13113705	0.82097608	0.11418056
0.11339243	0.07473545	0.65664114
0.11386087	0.58166178	0.62215804
0.58930325	0.32433448	0.65197578
0.64566272	0.84534376	0.60447285
0.59906247	0.07285848	0.14106854
0.61076365	0.56904573	0.13030673
0.08788287	0.31006097	0.13177982
0.11748301	0.82897959	0.12513076
0.11067115	0.06663441	0.66143331
0.1219393	0.58177137	0.63515556
0.59691386	0.32331235	0.63503847
0.64866589	0.83720592	0.61630646
0.60186126	0.06500035	0.14763645
0.61369171	0.56951587	0.11585531
0.09975811	0.31491512	0.12950907
0.11705975	0.82744557	0.124894
0.10201701	0.06573412	0.66111125
0.11936593	0.580091	0.6399111
0.59873522	0.32645285	0.63423018
0.64808159	0.83096044	0.61308584
0.61235633	0.05700154	0.13838304
0.61020745	0.56607136	0.10824038
0.10917788	0.31911903	0.13110884
0.12922865	0.82066729	0.11582273
0.10198287	0.06959905	0.65985401
0.1107285	0.57741585	0.62645152
0.60209938	0.32675692	0.64423808
0.64065884	0.83113479	0.6101587
0.62392707	0.05925745	0.11933278
0.6129997	0.56505325	0.11593365
0.10243148	0.31675837	0.13649922
0.13796367	0.81727565	0.11664139
0.11051429	0.07270239	0.66240035
0.1095356	0.57395961	0.62189989
0.61228022	0.32347987	0.6491406
0.63514273	0.8309863	0.62242818
0.62740897	0.06763903	0.11127502
0.62210263	0.56700893	0.12601897
0.09088373	0.31126143	0.14076243
0.13543389	0.81817818	0.12549238
0.12282732	0.07057859	0.66171033
0.11388408	0.57130415	0.628191
0.61553263	0.31735792	0.63876964
0.63429938	0.82769144	0.63793014
0.63202495	0.06594931	0.11718672
0.62792389	0.57029708	0.12349341
0.0952914	0.3092976	0.13622524
0.12515812	0.82156125	0.12811193
0.13103557	0.06451922	0.6522395
0.12064343	0.57085593	0.63270922
0.6157591	0.31572999	0.62556612
0.63394049	0.82087664	0.64486942
0.64009498	0.05714226	0.11683802
0.62479034	0.57180753	0.11429783
0.11474626	0.31526807	0.12768708
0.11773522	0.82456748	0.12440147
0.13159755	0.06013952	0.63492136
0.11734575	0.56971867	0.62987206
0.61859206	0.31932487	0.62405384
0.63236438	0.81533494	0.64078292
0.64391776	0.05606545	0.10858171
0.61985009	0.57026621	0.10607439
0.12868422	0.32184647	0.12818868
0.11762908	0.82536219	0.12084331
0.12720793	0.06059057	0.62540095
0.10602082	0.56882198	0.61947325
0.62652245	0.31672053	0.62915549
0.6306774	0.81753914	0.63593764
0.64378578	0.06247824	0.10246659
0.62594386	0.56797304	0.10881584
0.12415716	0.32178004	0.13408652
0.12028226	0.82664029	0.12192745
0.12817928	0.06344039	0.63237791
0.10473527	0.56807701	0.61387226
0.63640789	0.31182317	0.6295812
0.62938541	0.82060505	0.64072038
0.6426024	0.06724821	0.10730606
0.63574683	0.56739844	0.11720184
0.11920892	0.31720451	0.13873428
0.12401324	0.82740007	0.13212593
0.13589163	0.06358593	0.63797854
0.11574071	0.56470528	0.62074661
0.640831	0.311493	0.62242971
0.62842385	0.81963353	0.64920394
0.64204642	0.06347525	0.118188
0.6345871	0.5700536	0.12275887
0.12716248	0.31579896	0.13934038
0.12728845	0.82635125	0.13680237
0.13686887	0.05980515	0.6313129
0.12528431	0.56189179	0.63320989
0.64153854	0.31299719	0.61580884
0.62846409	0.81615611	0.65315789
0.64246931	0.05517285	0.11934721
0.62651468	0.57419056	0.12064013
0.13994928	0.31793896	0.1306659
0.1266947	0.82413633	0.12783271
0.13269679	0.05571326	0.61957315
0.12804898	0.56254822	0.63731701
0.64383049	0.31333692	0.61688052
0.62733782	0.81328327	0.64357602
0.64467653	0.05399088	0.11125279
0.62493984	0.57369865	0.11593437
0.14409014	0.32025755	0.1198663
0.12458526	0.82076945	0.12028266
0.13524213	0.0536673	0.61375303
0.12339059	0.56364027	0.63064219
0.64975168	0.30924511	0.62291761
0.62198833	0.81551785	0.63128869
0.64637785	0.06088907	0.10704898
0.63312601	0.56838982	0.11831006
0.13974538	0.31803833	0.11474058
0.1225911	0.82170719	0.12207661
0.14392325	0.05388393	0.61857049
0.1204538	0.56158117	0.6284375
0.65753078	0.30344014	0.62283998
0.61575024	0.8176925	0.63412711
0.6438297	0.06577149	0.11137595
0.63998953	0.56612864	0.12466836
0.13634648	0.31402074	0.11222794
0.12315252	0.82354944	0.13236867
0.15037091	0.05431033	0.62295022
0.12574978	0.55801462	0.63524089
0.65443867	0.30280194	0.61784243
0.61363043	0.81361139	0.64703933
0.64163865	0.06219664	0.1207945
0.64159281	0.56614038	0.12342793
0.14261446	0.31309465	0.11313665
0.12096482	0.82126964	0.14345184
0.14813938	0.05328495	0.61503912
0.13268668	0.55714801	0.63970641
0.64635694	0.3066739	0.61477774
0.61466832	0.80821788	0.65249552
0.64006158	0.05625379	0.12324487
0.63903019	0.56653156	0.11828926
0.1509557	0.31610882	0.1119952
0.11697113	0.81995539	0.14261042
0.14180396	0.05197671	0.60638193
0.13500247	0.55821622	0.63784249
0.64758867	0.30857329	0.6135085
0.61961451	0.80580221	0.64363538
0.64149704	0.05729642	0.11778144
0.63632907	0.56487357	0.11499448
0.15416183	0.31896981	0.10845464
0.11917466	0.8195687	0.13674986
0.14065823	0.05160908	0.61277296
0.1320532	0.55836899	0.63066795
0.64957377	0.30539587	0.61476094
0.62050881	0.80786584	0.62714306
0.64840698	0.06463972	0.11842711
0.64028748	0.56071933	0.12280674
0.15153723	0.31275591	0.10608339
0.12367721	0.8190854	0.13568776
0.14438205	0.05052976	0.62312672
0.13250519	0.55649406	0.62688608
0.64688528	0.30028681	0.61793653
0.6155393	0.80982037	0.62466397
0.65438813	0.0660242	0.1251361
0.64305763	0.5599069	0.13584542
0.14652126	0.30512035	0.10248391
0.12693171	0.81724435	0.14272522
0.14507594	0.04719165	0.62250031
0.13842936	0.55372163	0.63374572
0.64334816	0.30009198	0.61923423
0.6182687	0.80723378	0.63573938
0.6543002	0.05926184	0.12851528
0.64203996	0.56337966	0.13927807
0.14671688	0.30967117	0.0985769
0.12826877	0.81291516	0.15127357
0.13815589	0.04542576	0.61444467
0.14037146	0.55257245	0.64358839
0.64269447	0.30310641	0.62028935
0.62899074	0.80540074	0.64267047
0.65675352	0.05423113	0.12010725
0.64299828	0.56644851	0.12750113
0.1542359	0.31473631	0.09163115
0.12259939	0.81087248	0.14480691
0.12755964	0.04785442	0.60762394
0.13972003	0.55264202	0.63964212
0.64981396	0.30361878	0.62183451
0.63598728	0.80607792	0.63222893
0.66394423	0.05995666	0.10551739
0.64341367	0.56554668	0.12007404
0.16141128	0.31412742	0.08463558
0.1160768	0.81370737	0.12770935
0.12477286	0.05071011	0.61131509
0.13378593	0.55366903	0.62667441
0.65314649	0.30002773	0.6193162
0.63091176	0.80795712	0.61429379
0.66573612	0.06916489	0.10148724
0.64700867	0.55936953	0.12839937
0.15936332	0.30761028	0.09015478
0.11111483	0.82044216	0.12620228
0.13859652	0.05057669	0.61936497
0.12608489	0.5545389	0.61783915
0.65035149	0.29606319	0.61598989
0.62462573	0.80825613	0.61731646
0.66188778	0.06638167	0.10729383
0.65591384	0.55603937	0.14075235
0.14654917	0.30366297	0.10024149
0.10622253	0.82489122	0.13672033
0.15580877	0.04853712	0.61956641
0.13453321	0.55382611	0.61685192
0.6455989	0.29695127	0.62067767
0.62949201	0.80394423	0.63369531
0.65666027	0.05517191	0.11361083
0.65644655	0.55952927	0.14056218
0.15165064	0.30922295	0.1061783
0.10269564	0.82124901	0.14792428
0.16306975	0.04868455	0.60471176
0.15035537	0.55460313	0.62080016
0.64258842	0.29994654	0.62506232
0.63667213	0.80007332	0.63624404
0.65211142	0.05041591	0.11375371
0.65315105	0.5705446	0.13042334
0.16799468	0.31690218	0.10859895
0.10197702	0.81482698	0.14317797
0.14812987	0.05380965	0.58890146
0.15023239	0.55638253	0.62839831
0.64707878	0.29878736	0.61884054
0.63537779	0.79901276	0.62825072
0.65010715	0.05471606	0.10859086
0.65346921	0.57876348	0.12415289
0.16562133	0.31815001	0.10850346
0.10689742	0.81589487	0.12165204
0.13083806	0.06053912	0.59335773
0.14278588	0.55768593	0.63158741
0.65277973	0.2962181	0.61006245
0.62520538	0.80245692	0.61978777
0.64833643	0.05944169	0.11226966
0.65532429	0.57393308	0.13183058
0.15324133	0.31418702	0.10997143
0.1138999	0.82468247	0.10968117
0.13606043	0.06182454	0.60932437
0.13170075	0.55940655	0.62585687
0.65375064	0.29816718	0.6115699
0.61722154	0.81282221	0.63057661
0.6445328	0.05946461	0.12232694
0.65816077	0.5664362	0.13840312
0.14640561	0.3096778	0.11658901
0.11885343	0.82736521	0.12429151
0.1457887	0.05859736	0.61693394
0.12571402	0.55641858	0.62163962
0.6563647	0.30528192	0.62620446
0.62267331	0.82265308	0.65916205
0.64115453	0.05797213	0.12604018
0.65524979	0.56956381	0.12684712
0.15214658	0.31112265	0.12300276
0.12224463	0.82219602	0.13743339
0.14006735	0.05607099	0.61020218
0.12628268	0.55477509	0.62491809
0.66266999	0.30828412	0.63831545
0.63268243	0.82450648	0.66718843
0.64956823	0.06132668	0.11843573
0.65026296	0.57705335	0.11089559
0.16077401	0.31656881	0.12471033
0.12367165	0.81860721	0.1300764
0.12554289	0.05711327	0.60306554
0.13540856	0.55881052	0.63098804
0.67045214	0.30949484	0.63845834
0.62740258	0.82016385	0.65066919
0.65600025	0.06755436	0.11031309
0.65742907	0.5795536	0.11131515
0.15228758	0.31938138	0.1213665
0.12461657	0.82318727	0.12137399
0.12390126	0.06053707	0.60530668
0.14528543	0.55995059	0.63607281
0.67354934	0.3144107	0.62845774
0.61705604	0.81525515	0.64599273
0.6490914	0.06985577	0.1214741
0.6637624	0.57495702	0.12011674
0.14421613	0.31832432	0.12374881
0.13075072	0.82638098	0.13111051
0.13572059	0.05857904	0.62086516
0.14598099	0.56233887	0.62369128
0.66156491	0.31847185	0.62050754
0.61149386	0.81932856	0.64917233
0.64412958	0.06637699	0.13748358
0.66064471	0.56950316	0.12607586
0.15057918	0.31205349	0.12969908
0.1325519	0.82006304	0.14870289
0.14862004	0.05219144	0.63426419
0.13617696	0.5657076	0.61230379
0.64885537	0.31924395	0.62104769
0.61737156	0.8271272	0.65687102
0.64672768	0.06243285	0.13442719
0.65027222	0.56983436	0.12435478
0.16270401	0.31431597	0.13437457
0.13019627	0.81227511	0.15598476
0.15064534	0.0490871	0.63721293
0.12554451	0.56915894	0.62397726
0.65686081	0.31838456	0.62698474
0.62684747	0.82709098	0.66001771
0.64475574	0.06238879	0.12524348
0.6366191	0.57484327	0.12609723
0.16329124	0.32092211	0.13696092
0.1366738	0.81096312	0.14461977
0.1426025	0.05466817	0.63654837
0.1301667	0.57138094	0.64056249
0.66478657	0.31766069	0.63487763
0.62705779	0.82291983	0.6542409
0.63498641	0.06468143	0.12089355
0.63606201	0.5758428	0.13076631
0.15273169	0.3186713	0.13445103
0.14598063	0.81878778	0.12633541
0.1360548	0.06447817	0.63205395
0.14142442	0.57009746	0.64607875
0.657726	0.31945418	0.63738809
0.62320548	0.82032311	0.65226474
0.6268939	0.06552867	0.12329862
0.64342679	0.57071847	0.12456186
0.14040378	0.31513645	0.12941117
0.14391775	0.82800928	0.11369375
0.13302299	0.06649411	0.63293928
0.14041897	0.5661581	0.63719034
0.64657895	0.32137627	0.63539839
0.62478716	0.82419981	0.64822863
0.62570023	0.06433979	0.12883588
0.64063666	0.56571258	0.11739742
0.13105655	0.3144153	0.13107003
0.13208938	0.83045442	0.11994222
0.13359571	0.06186049	0.63803757
0.12798041	0.56419902	0.62895109
0.64645528	0.32261004	0.63789754
0.63132675	0.82910899	0.64405967
0.6318933	0.06488182	0.12759948
0.63334681	0.5651168	0.113598
0.13122414	0.31744579	0.13601643
0.12135645	0.82680674	0.13088243
0.137333	0.05995291	0.64150426
0.12269686	0.56628642	0.63481535
0.65348797	0.32154419	0.64550608
0.63606882	0.82715507	0.64156947
0.63842973	0.06635686	0.12225975
0.62763507	0.56895652	0.1141584
0.13868581	0.32069855	0.13752799
0.1208725	0.82324559	0.13141279
0.14120378	0.06644959	0.63734831
0.13280184	0.57176698	0.64480766
0.65159377	0.3188731	0.65335838
0.63056172	0.8238304	0.63792504
0.63878038	0.06641214	0.12170853
0.63079046	0.57066052	0.12073973
0.14104002	0.31981896	0.13351916
0.12738475	0.82553053	0.12577156
0.14064308	0.07204641	0.63356428
0.13922354	0.57606179	0.64449332
0.63920765	0.31780629	0.6495544
0.62713869	0.82356546	0.63491373
0.63602757	0.06651928	0.12503485
0.63594326	0.56763185	0.1233216
0.13355184	0.31792834	0.12766648
0.12736291	0.82934781	0.11886846
0.13418438	0.06975932	0.64150419
0.13002159	0.57615329	0.63253385
0.63028574	0.31696058	0.63578381
0.63136926	0.82622271	0.62992623
0.63642494	0.06712922	0.12996991
0.62930185	0.56657933	0.12379386
0.12680362	0.31738923	0.1270246
0.12055267	0.82801909	0.12152374
0.12901416	0.06604963	0.65002581
0.12149581	0.57589554	0.61865887
0.62968941	0.3156035	0.63438133
0.63366293	0.82650286	0.62301297
0.63992834	0.06625014	0.13361316
0.62108263	0.56968533	0.12824596
0.12341551	0.31884992	0.1338502
0.11787371	0.82304184	0.13135184
0.12664071	0.06732112	0.65068412
0.1221539	0.57645089	0.62059254
0.63654671	0.31532414	0.64354346
0.62963403	0.82271429	0.62465443
0.63824077	0.06285668	0.13476022
0.62159798	0.572081	0.13053094
0.12871822	0.32056869	0.13751492
0.12371208	0.82094409	0.12911634
0.12514572	0.07322292	0.64768067
0.13072979	0.57755595	0.63403987
0.64221972	0.31631392	0.64460901
0.62592079	0.82049465	0.62584447
0.63241179	0.06050138	0.13465209
0.6305798	0.57175189	0.13019081
0.1290148	0.32078078	0.13143084
0.1278566	0.82415758	0.12008612
0.12478689	0.0778683	0.64816811
0.13638147	0.58073826	0.64500898
0.63778551	0.31933778	0.63545767
0.62759529	0.82242042	0.62240534
0.63259729	0.06318949	0.13625114
0.63833604	0.56964413	0.12645519
0.11776492	0.31954511	0.12477154
0.12277955	0.82652051	0.1163813
0.12804636	0.07558043	0.65133626
0.12741006	0.57781819	0.6381013
0.62611778	0.32069337	0.62629215
0.63393579	0.82537082	0.62031765
0.63759545	0.06738775	0.14068476
0.6331335	0.56984203	0.12241125
0.10995745	0.31630609	0.12646599
0.115893	0.82416196	0.12003075
0.13138615	0.06996441	0.64713639
0.11610489	0.57235688	0.62126158
0.61952133	0.31855805	0.62723696
0.63805167	0.82564223	0.61929969
0.64158733	0.06757417	0.14381275
0.62214072	0.57383729	0.12728865
0.11286494	0.31528654	0.13279879
0.11581956	0.82079484	0.12164046
0.12997149	0.06831303	0.63921757
0.11784395	0.57340898	0.62095791
0.62182243	0.31740513	0.63333281
0.63851849	0.82263456	0.62294327
0.64271294	0.06328037	0.14181191
0.62360407	0.57546988	0.13488224
0.11953591	0.31789849	0.13689217
0.12147527	0.82270672	0.11392582
0.12523556	0.0708734	0.6313639
0.12520642	0.57568584	0.63519961
0.62827279	0.31936468	0.63207882
0.64390744	0.82221147	0.62530289
0.63891579	0.05929431	0.13677568
0.63640064	0.57237585	0.1357464
0.11757382	0.31684	0.13109831
0.12656534	0.82652842	0.10723694
0.12105158	0.07166774	0.62921328
0.12952741	0.57598057	0.63576596
0.62915601	0.3222499	0.62336145
0.65284499	0.82563549	0.61748065
0.63420092	0.06081767	0.13466142
0.6373468	0.5686714	0.131979
0.10449726	0.31413058	0.12266154
0.12271737	0.82441858	0.10655656
0.12439857	0.06726711	0.63494339
0.12113762	0.57302252	0.62172699
0.61659039	0.32255884	0.61472236
0.65534262	0.82891612	0.60813562
0.63079176	0.0660074	0.13857144
0.62251887	0.56766129	0.13251742
0.10124971	0.3146179	0.12417573
0.11741844	0.81890379	0.11192663
0.12666944	0.06151552	0.63974181
0.10811284	0.57046519	0.61024195
0.61021836	0.32232552	0.61583897
0.64694438	0.82874514	0.60704514
0.62540506	0.06772887	0.13950756
0.6099787	0.57080375	0.14038539
0.10907761	0.31759302	0.13192211
0.12611453	0.81593449	0.1191718
0.11947092	0.06187135	0.63528516
0.10620739	0.57341593	0.62007624
0.62009351	0.32486506	0.62673306
0.63493369	0.82730936	0.62120798
0.61570443	0.06354861	0.13036458
0.61496886	0.57237718	0.14507314
0.11968157	0.31901824	0.13783396
0.1395112	0.81728023	0.11310872
0.11302089	0.06590897	0.62573855
0.12651752	0.57761985	0.64187949
0.61909797	0.32716542	0.63996025
0.63199655	0.83344253	0.63592244
0.60260568	0.05964719	0.12358649
0.63068136	0.56970113	0.13617531
0.12310514	0.31610904	0.13149719
0.14055572	0.82047108	0.1030017
0.11245909	0.06583214	0.61654591
0.14602474	0.57624785	0.64853705
0.60602414	0.32763932	0.64804622
0.63834254	0.84070818	0.63285888
0.59803652	0.0629332	0.12427569
0.62912177	0.56684484	0.12120038
0.11467622	0.31391476	0.12218849
0.13638088	0.82079137	0.10412985
0.11371684	0.05996248	0.61486939
0.13522441	0.56717005	0.62037763
0.60152928	0.32396087	0.64822257
0.64403371	0.83564984	0.6206755
0.60128012	0.06961555	0.12277651
0.61346896	0.56576416	0.11511233
0.09866493	0.31441834	0.13126594
0.13182673	0.81855658	0.11561824
0.1068285	0.05576529	0.62493972
0.10494454	0.55646496	0.60359077
0.60974039	0.31829932	0.64763815
0.64528945	0.82843979	0.61429917
0.60722217	0.06837912	0.11513103
0.61464278	0.56610883	0.12305154
0.09068334	0.31382794	0.13106246
0.1329339	0.820315	0.13001282
0.09291595	0.05988943	0.62883138
0.09961791	0.55756134	0.6273659
0.61847613	0.31858843	0.65445107
0.64220983	0.82585607	0.62258774
0.60764077	0.06354589	0.10477263
0.62615424	0.56659444	0.12983394
0.09672126	0.31528511	0.12573532
0.13948003	0.82606318	0.13271887
0.09203488	0.06634466	0.62119705
0.11946489	0.56638722	0.6548245
0.61352676	0.3221482	0.66112708
0.6396381	0.8284692	0.63432372
0.59052928	0.06502152	0.10490642
0.61760076	0.56498828	0.12567685
0.10268521	0.31748937	0.1269233
0.14148849	0.82751964	0.12889712
0.09929118	0.06397903	0.61903133
0.13078784	0.57231329	0.65384179
0.59973825	0.32315346	0.65982179
0.63758582	0.8297272	0.63923998
0.57420531	0.06961518	0.11940272
0.60194704	0.56236509	0.11201974
0.09804256	0.31736492	0.12815455
0.14321861	0.82125084	0.13238194
0.10268151	0.05761038	0.63410388
0.11270913	0.56850168	0.63482055
0.58772953	0.31999154	0.6547341
0.63598559	0.82379125	0.63905458
0.57721746	0.0670521	0.13093134
0.60098509	0.56139911	0.10264634
0.08018955	0.31476463	0.13081001
0.14861645	0.81735863	0.13812591
0.09734773	0.05497464	0.64135861
0.0903916	0.55947016	0.6176773
0.58344927	0.31546676	0.64856481
0.63506388	0.81638884	0.64225064
0.59088404	0.0590879	0.13720866
0.61583157	0.5640634	0.11028596
0.0704737	0.31026903	0.12556408
0.1588303	0.82143731	0.14418632
0.08881649	0.05664791	0.63339071
0.10472574	0.55892706	0.62031918
0.58896662	0.31394534	0.64613901
0.63093134	0.81416183	0.64801435
0.6022113	0.05469184	0.13705232
0.6274084	0.56841755	0.12458926
0.07993917	0.30663531	0.1160083
0.16664618	0.82565127	0.13949397
0.08777216	0.05926906	0.63231525
0.12390254	0.56458607	0.63889396
0.59645089	0.31262242	0.64462888
0.62932486	0.81920129	0.65271022
0.60576981	0.0581718	0.13233104
0.61789038	0.57009982	0.12791919
0.09992208	0.30779296	0.11057145
0.15710801	0.8225556	0.12897255
0.09462114	0.05822998	0.63300275
0.11565551	0.56879806	0.64902244
0.59763383	0.31329381	0.63975803
0.63914026	0.82640965	0.64820768
0.60892799	0.06361365	0.13024795
0.60502189	0.56957234	0.11858423
0.10469122	0.30940997	0.11341794
0.13488794	0.81707672	0.1364229
0.09774457	0.05542001	0.63309204
0.09496576	0.56857437	0.64068338
0.59348641	0.316767	0.63362095
0.64878502	0.82973319	0.6423704
0.61201078	0.06448137	0.12917906
0.60615393	0.57092911	0.1079815
0.09626706	0.3105592	0.12285721
0.11451627	0.81359252	0.15093262
0.09601685	0.05745247	0.6331498
0.08855967	0.56626766	0.62010632
0.59058239	0.31532192	0.62574691
0.64596995	0.8249608	0.64281557
0.61108	0.06006679	0.12625852
0.62038784	0.57503796	0.11492036
0.09126977	0.31145597	0.12625367
0.11455283	0.81783198	0.15607466
0.09292923	0.06119991	0.63187392
0.1067361	0.56711942	0.61494885
0.5983032	0.31468947	0.61650145
0.63428496	0.81620894	0.64199531
0.60500787	0.05600523	0.1228272
0.6253686	0.57729492	0.13757796
0.10009948	0.31172414	0.12421604
0.13026667	0.82197549	0.14696223
0.09146417	0.06126989	0.63133365
0.12272851	0.56822944	0.62837264
0.60926736	0.31549068	0.61180969
0.62820569	0.81331821	0.64558857
0.59922567	0.05614118	0.11940109
0.61651287	0.57328419	0.14395711
0.10957795	0.31379847	0.12282143
0.13868539	0.81718343	0.13031533
0.09307364	0.05789279	0.62872435
0.11873254	0.56504901	0.63939797
0.61219833	0.31375125	0.61171359
0.63136482	0.82311627	0.6475581
0.59979993	0.0593816	0.12231541
0.61120653	0.56597612	0.13047402
0.10709123	0.31505562	0.12367921
0.1291625	0.81271326	0.12634695
0.09362962	0.05478972	0.62434668
0.10880027	0.56296392	0.64062348
0.60519627	0.31234601	0.61305764
0.63646336	0.82946403	0.64061667
0.60678976	0.06181528	0.12420801
0.61932	0.56207084	0.11653831
0.09773731	0.3140504	0.12524237
0.11329145	0.8137605	0.13478364
0.09323474	0.05544277	0.62153943
0.10267327	0.5634585	0.63572235
0.60185566	0.31280548	0.61694095
0.63522027	0.82518074	0.63989863
0.61388084	0.06129234	0.12105729
0.63505308	0.56447054	0.11936921
0.09892327	0.31177543	0.12274982
0.11415924	0.81885091	0.13835872
0.09646332	0.05855697	0.62225845
0.10772399	0.5643011	0.63275788
0.60864659	0.31425204	0.61876374
0.62896149	0.81780166	0.6426418
0.61488422	0.0606138	0.12164676
0.64368774	0.5677606	0.13235742
0.10902656	0.30982955	0.11780527
0.1272448	0.82231475	0.13440756
0.10054323	0.06069564	0.62510813
0.11646901	0.56408786	0.64126163
0.61142287	0.31602978	0.61710643
0.62461088	0.81765314	0.63829151
0.61591473	0.06146594	0.12387795
0.63380342	0.56578707	0.12917267
0.11858459	0.31037594	0.11868002
0.13054999	0.81817425	0.12919531
0.1036457	0.0605535	0.62523135
0.11789837	0.5622071	0.64526184
0.61034403	0.31442617	0.61576259
0.62681939	0.82393776	0.63630587
0.62152455	0.06228097	0.12175312
0.62078822	0.56137293	0.11985546
0.11902786	0.31202631	0.12663641
0.12450405	0.81410811	0.13146153
0.10490987	0.05941692	0.62304976
0.11439284	0.56254864	0.63850603
0.60945369	0.31043269	0.6188175
0.63190268	0.82568329	0.63711514
0.62711541	0.06146782	0.11734894
0.62286434	0.56004688	0.1226429
0.11549078	0.31342762	0.13333592
0.11911683	0.81492724	0.13872734
0.10463769	0.05884189	0.62347437
0.11263851	0.56589993	0.63324031
0.60990728	0.30966444	0.62346262
0.63188269	0.81838268	0.63678176
0.62744823	0.05892678	0.11443846
0.63312994	0.56298794	0.13321346
0.11582626	0.31318487	0.12819173
0.12449873	0.81806293	0.13734684
0.10956694	0.05874499	0.62527896
0.11645343	0.56818814	0.63475729
0.61588047	0.31440757	0.6250796
0.62695546	0.81194587	0.63504989
0.62461807	0.0579935	0.11346417
0.63513262	0.56471665	0.14073989
0.12153221	0.31028995	0.11773869
0.13183495	0.82204066	0.12961056
0.11678775	0.05918319	0.62865742
0.12289594	0.56726087	0.64180133
0.62078561	0.3184305	0.62391378
0.62395466	0.81271855	0.63579393
0.62522422	0.05801099	0.11342684
0.62807955	0.56211904	0.13124425
0.12701387	0.3109644	0.11570374
0.12580682	0.8202776	0.12494159
0.12112707	0.05878346	0.63340801
0.12052783	0.5646008	0.6445211
0.62201081	0.31535689	0.62399334
0.62505372	0.81762617	0.63899652
0.63200001	0.05700536	0.11448893
0.62211485	0.55939901	0.11374991
0.12544038	0.31473033	0.12145124
0.1157396	0.81664558	0.12827582
0.12648569	0.05916766	0.63377213
0.11639865	0.56391266	0.6396462
0.62311099	0.30956987	0.62809169
0.62914288	0.8185427	0.6352571
0.64109032	0.05647788	0.11698158
0.62638722	0.56039809	0.10615571
0.1270162	0.31556518	0.12729947
0.11453408	0.82033452	0.13622353
0.13448096	0.06153373	0.6340874
0.11926072	0.5678326	0.63619722
0.62638399	0.3104199	0.63318942
0.6321697	0.81383492	0.6244578
0.64278687	0.05656515	0.12014333
0.63389107	0.56460122	0.11357067
0.13730154	0.31435699	0.12731526
0.12436272	0.82368837	0.13677676
0.1417769	0.06400126	0.63968506
0.12689271	0.57238358	0.63489394
0.63443134	0.31417787	0.63296247
0.6296205	0.80994964	0.61564212
0.64118206	0.05872792	0.12280791
0.63519124	0.56942094	0.12870254
0.14091166	0.31254298	0.12361188
0.13191404	0.82481217	0.13004421
0.14647766	0.06660976	0.64359429
0.13136862	0.57326071	0.63436182
0.64383207	0.31388668	0.628321
0.62903616	0.81204802	0.61433872
0.64709512	0.06274397	0.12073532
0.62739967	0.57137099	0.13967706
0.13917192	0.31268743	0.12628713
0.12918828	0.82154184	0.1247657
0.14826811	0.06862729	0.63915453
0.12875804	0.57099459	0.6306932
0.64877993	0.30740872	0.62659794
0.63201378	0.81808269	0.62174607
0.65295872	0.06388641	0.119374
0.62081033	0.57235713	0.13853641
0.13566274	0.31626096	0.1327923
0.1240003	0.81694732	0.12091452
0.14633497	0.06695178	0.63267308
0.12582525	0.57286976	0.62173422
0.6522934	0.29881595	0.63754134
0.63175005	0.8216951	0.6262887
0.65150226	0.06341436	0.12103848
0.62986533	0.57289632	0.12987475
0.13879441	0.32017148	0.13398554
0.12375822	0.82229665	0.11837
0.14391236	0.06446607	0.63130031
0.13277269	0.57781551	0.61455894
0.65512543	0.29763588	0.64886877
0.62742249	0.81869026	0.62064337
0.65168324	0.06378255	0.11858925
0.64445308	0.57405983	0.1227089
0.15149876	0.32233088	0.12675304
0.12843727	0.82886793	0.11727917
0.14544843	0.06473311	0.63308057
0.1421389	0.57763937	0.61617882
0.66471335	0.30917101	0.64664518
0.62710913	0.81237328	0.61695082
0.65652317	0.06631491	0.11962639
0.64837244	0.57687139	0.12490022
0.15925498	0.32230475	0.12346642
0.12984036	0.82729734	0.11046357
0.15163833	0.06851876	0.63252214
0.14461699	0.573201	0.62447213
0.68050432	0.32141462	0.63640896
0.63108459	0.81095401	0.62322372
0.66754463	0.0707829	0.12559139
0.64325581	0.57810889	0.12985921
0.15479338	0.32169846	0.13267267
0.11962508	0.82314097	0.10297981
0.16314418	0.06986168	0.62595315
0.14241638	0.56875729	0.62573807
0.68099501	0.32243118	0.63216107
0.62905359	0.81958188	0.63329631
0.67780462	0.07278871	0.12946286
0.63752488	0.57896085	0.12615549
0.14944429	0.32352146	0.14224428
0.11483436	0.82318475	0.10608135
0.17634928	0.0665977	0.61986728
0.14824258	0.5658986	0.61794128
0.67254277	0.31593855	0.6433013
0.62412265	0.83137746	0.63122222
0.67896363	0.07222527	0.13023189
0.64488356	0.57886241	0.12176538
0.15018597	0.32453735	0.1468011
0.11897925	0.83202655	0.11417742
0.18265067	0.06099222	0.62705113
0.16019875	0.56696667	0.61528585
0.67232524	0.31180231	0.6619402
0.62381798	0.83509969	0.6257387
0.67493616	0.07258108	0.13177579
0.66049382	0.57945256	0.11880773
0.16246761	0.32444413	0.14714628
0.12790118	0.83835721	0.11690054
0.17651996	0.05965555	0.63925942
0.16399736	0.56901015	0.62215138
0.68029313	0.31647114	0.65992593
0.63378572	0.8316304	0.63123846
0.67756297	0.07498092	0.14188225
0.66668662	0.57955498	0.11624492
0.16837799	0.32457973	0.14009157
0.12551496	0.83515957	0.11321586
0.17622278	0.06358904	0.64612996
0.15097255	0.56976999	0.63199464
0.69003812	0.32529599	0.63742685
0.64575705	0.82918647	0.64019598
0.68699606	0.07885867	0.15333024
0.66115779	0.57805722	0.12210448
0.16419401	0.32399399	0.13117626
0.11462762	0.83192561	0.11266224
0.18127296	0.06551624	0.6430591
0.14310121	0.57118357	0.62939031
0.69416724	0.32985011	0.62802198
0.64892684	0.83335482	0.64174502
0.69446257	0.07674725	0.15315701
0.65012459	0.57705526	0.11739406
0.16442003	0.3295505	0.12399711
0.11675412	0.83216458	0.11692058
0.18079044	0.06403079	0.64140039
0.15490811	0.57256566	0.61433104
0.69652143	0.32989415	0.64002581
0.64187306	0.84176498	0.63435013
0.69300077	0.07308782	0.15278243
0.64807097	0.57513979	0.11241491
0.1742951	0.32966784	0.11699059
0.12050408	0.83491677	0.11644456
0.18375397	0.06163436	0.6492493
0.17182057	0.57360489	0.61928626
0.70180112	0.33128507	0.65315211
0.63405909	0.8424043	0.62529716
0.68042606	0.07380287	0.15525065
0.65419186	0.57596305	0.11566754
0.18622236	0.32534559	0.11617106
0.11661333	0.83620848	0.10850464
0.18792109	0.06205719	0.65697466
0.16931953	0.57272702	0.63521728
0.70152407	0.3380126	0.65379317
0.63315952	0.83317113	0.62075345
0.67270785	0.07515243	0.15421827
0.65809282	0.57936937	0.11921588
0.18752942	0.32649795	0.11862678
0.11509137	0.83327888	0.10119862
0.19242345	0.0661146	0.65338044
0.15796559	0.570689	0.63396626
0.69674268	0.34171895	0.64384658
0.63710625	0.8312894	0.62339904
0.68087014	0.07568467	0.14766864
0.6600656	0.58220203	0.12443876
0.17689633	0.32963519	0.12119007
0.12244309	0.83153697	0.10451813
0.1949189	0.06962527	0.64435154
0.15952827	0.57199231	0.62315443
0.69229295	0.33645256	0.6412263
0.64255829	0.83653803	0.62865596
0.69392212	0.07358995	0.1402566
0.66046049	0.58265109	0.12914988
0.16823709	0.33059933	0.1249248
0.13319745	0.83337862	0.11272954
0.18930585	0.0706699	0.64480633
0.17026796	0.57530634	0.61880862
0.6896808	0.32957744	0.65497518
0.64681705	0.84108759	0.62476098
0.69069712	0.07081533	0.14530167
0.66145907	0.57979802	0.13073286
0.17642038	0.32752517	0.12574263
0.1353475	0.83523492	0.11292423
0.17950485	0.06985719	0.65112503
0.17440295	0.57839531	0.6242094
0.69044971	0.32585425	0.66634363
0.64939441	0.83888056	0.61917871
0.6766046	0.07381054	0.1591291
0.66510133	0.57705793	0.13248789
0.18718339	0.32581757	0.12739735
0.12676675	0.83386491	0.11058308
0.17334626	0.07075904	0.653037
0.16846303	0.57887919	0.63114046
0.68810533	0.3272664	0.66586958
0.64879177	0.83291501	0.62055823
0.66592687	0.07645689	0.16288365
0.66530075	0.57842569	0.13637764
0.18244315	0.32849012	0.13068632
0.11869929	0.83025863	0.11201931
0.17327032	0.07455507	0.64698009
0.15544534	0.57688606	0.62971004
0.68365755	0.32854317	0.65867369
0.64364051	0.83146434	0.62351449
0.66485167	0.07493566	0.15525347
0.6618372	0.58167842	0.14328738
0.17533301	0.33205438	0.13124062
0.12053641	0.83078208	0.11494187
0.17512112	0.07559851	0.64021621
0.15847388	0.57907115	0.62471361
0.68320406	0.32612826	0.65131326
0.64207839	0.83250254	0.62737303
0.66894095	0.0727741	0.14815608
0.66417586	0.58189286	0.14721157
0.17911032	0.33185319	0.1306219
0.12759745	0.83273571	0.11530077
0.170526	0.07316241	0.64237619
0.17257864	0.58091056	0.62494858
0.68468993	0.32281277	0.64934704
0.64331771	0.83306494	0.62783165
0.66637104	0.07149603	0.15129007
0.66712235	0.57979993	0.14115098
0.18475542	0.3255409	0.12850487
0.13249462	0.83119425	0.10998727
0.1629653	0.07163883	0.64840755
0.17669337	0.58064378	0.62959753
0.68565342	0.32053066	0.65141749
0.64165706	0.83176889	0.62532946
0.65551115	0.07190102	0.15831706
0.66560825	0.57808124	0.13541153
0.18106745	0.31829704	0.12745166
0.13257132	0.82870354	0.10725748
0.15576657	0.07336966	0.64726613
0.16617189	0.58186007	0.63114416
0.68302202	0.31999815	0.65066605
0.63779667	0.82855633	0.62580032
0.64927179	0.07200434	0.1526916
0.66282324	0.58020567	0.13285028
0.16571118	0.31690167	0.13090952
0.13554263	0.82705249	0.11604765
0.14884747	0.07826623	0.63872781
0.15450807	0.58200621	0.62773389
0.67761102	0.32116307	0.64684003
0.63732267	0.8282535	0.62768197
0.6520629	0.07057365	0.13971661
0.65978987	0.58235285	0.13513898
0.15091713	0.31991912	0.12993345
0.13725111	0.82802181	0.12628135
0.14297986	0.07885526	0.63272299
0.1523926	0.58121082	0.62530414
0.67353547	0.32267198	0.64013863
0.6398827	0.83050369	0.62922754
0.65121809	0.06742749	0.13645361
0.65979279	0.58138789	0.13681388
0.14788096	0.32162156	0.12987336
0.13437483	0.8299361	0.13016811
0.13541944	0.07389797	0.63782382
0.15839684	0.58147029	0.62964179
0.66681916	0.32422912	0.63566302
0.64461378	0.83106834	0.6285777
0.63633699	0.06377369	0.14202238
0.65942385	0.57827368	0.13142743
0.15457081	0.31927255	0.13713479
0.13498962	0.82770256	0.12490636
0.12924088	0.07226296	0.6434936
0.15848452	0.580579	0.63527948
0.6568774	0.3236726	0.63891945
0.6502182	0.82991602	0.63033604
0.62400398	0.06368378	0.14397322
0.65540769	0.57375318	0.12754947
0.15685478	0.3166823	0.14306837
0.13490267	0.82268698	0.11796609
0.12746188	0.07309762	0.64176502
0.14956795	0.57843078	0.63568653
0.64476258	0.32138735	0.64619242
0.64968337	0.82651164	0.63724634
0.62335794	0.06693275	0.13163664
0.65116108	0.57138423	0.13066136
0.14736751	0.31872607	0.14732432
0.13321906	0.82088442	0.11877964
0.1248414	0.07100633	0.63283099
0.13916625	0.57547564	0.63296745
0.63581486	0.31965636	0.64714355
0.64266997	0.82302259	0.64020967
0.62638401	0.06880183	0.1166027
0.64657038	0.57085419	0.13355916
0.13116296	0.3214255	0.14469879
0.13508636	0.8239892	0.12487513
0.12122549	0.06735984	0.62911093
0.13450323	0.57317348	0.6327518
0.63322711	0.31804469	0.63441637
0.6368723	0.82434019	0.63757316
0.62691896	0.06714943	0.1153973
0.64322133	0.56662035	0.13024193
0.11865622	0.31989957	0.13861075
0.13707392	0.82687194	0.12561893
0.11869947	0.0659455	0.63500435
0.13446889	0.57350037	0.63629124
0.6301335	0.31692921	0.62182094
0.63432154	0.82610633	0.63472282
0.62010272	0.05946454	0.11874707
0.63987024	0.56088852	0.12132182
0.11238404	0.31497642	0.13749954
0.13949052	0.82501438	0.12016881
0.11720347	0.06867463	0.63950966
0.12604735	0.57244344	0.63882278
0.62488754	0.31677402	0.6271374
0.63919233	0.82567644	0.62894771
0.60918451	0.05668828	0.11208483
0.63114277	0.55770958	0.11714538
0.10941259	0.31409774	0.13720552
0.13743493	0.81911508	0.11994782
0.1130317	0.07117583	0.63431619
0.1122705	0.5701454	0.63675667
0.61954157	0.31746406	0.63837263
0.64364759	0.82330153	0.62572597
0.6040509	0.06210877	0.09888845
0.6207371	0.56002108	0.11987406
0.10472034	0.31745041	0.13330179
0.12801969	0.81529939	0.13101072
0.10707181	0.06623856	0.62318652
0.10544109	0.56717012	0.63361322
0.61364341	0.31924994	0.64042765
0.63676537	0.82306087	0.62559428
0.60587355	0.05977026	0.09131371
0.61312755	0.56374179	0.12568636
0.09502214	0.31958754	0.12688294
0.12012533	0.81779185	0.13515044
0.10451514	0.05635203	0.61951671
0.10470343	0.56257655	0.63495347
0.60895103	0.32042788	0.62809543
0.62364671	0.82415635	0.62617354
0.60124894	0.05175361	0.0965575
0.60666508	0.56223522	0.12883713
0.08767275	0.31576751	0.12149239
0.1191905	0.82252606	0.12758711
0.10045688	0.04924137	0.62955997
0.10733999	0.56139594	0.64228478
0.59992393	0.32006323	0.61327964
0.61826867	0.81977215	0.63203355
0.59062586	0.04782409	0.10752248
0.60252199	0.55719787	0.11825129
0.08632355	0.31111275	0.12111721
0.12434712	0.81834574	0.1238082
0.09367299	0.04981402	0.63253909
0.10241422	0.55913185	0.64863577
0.58521917	0.31615572	0.61398862
0.62319543	0.81414788	0.63754313
0.58749357	0.05156649	0.10937366
0.60029258	0.55410367	0.11252961
0.08039936	0.30941232	0.12101106
0.12946227	0.80997397	0.13058895
0.08874635	0.05526283	0.62416862
0.09019887	0.55616164	0.64972191
0.57045351	0.30843586	0.62212969
0.62808703	0.81113323	0.63880961
0.59676558	0.05664473	0.10348024
0.59466389	0.55534425	0.12020008
0.06734012	0.31045985	0.11738522
0.124262	0.8094349	0.14254943
0.08680306	0.05302495	0.6130234
0.08260727	0.55600026	0.64706501
0.55980602	0.30224305	0.61489158
0.6203016	0.81087926	0.63575076
0.61103095	0.0501789	0.09863941
0.58561789	0.56198131	0.12198959
0.05702459	0.31092459	0.11016458
0.11489011	0.81662873	0.14585286
0.08746751	0.04587937	0.6123155
0.08232692	0.55617842	0.64628491
0.5625042	0.30149405	0.59823164
0.6062108	0.81388867	0.63021684
0.60983083	0.04102341	0.10266463
0.57593211	0.56271169	0.11889343
0.062668	0.30814742	0.10263897
0.10837498	0.81790957	0.14018651
0.0864728	0.04734555	0.61937883
0.08309316	0.55580141	0.64928925
0.56716861	0.30282826	0.58966961
0.60395118	0.81612022	0.63226832
0.596468	0.03768373	0.10880321
0.57511351	0.55938411	0.11564581
0.06483042	0.30225044	0.10756603
0.1089093	0.80983732	0.14000935
0.07777124	0.04937408	0.62703274
0.07030266	0.55409918	0.65233621
0.55293897	0.29762724	0.59359585
0.61448897	0.81384497	0.63387227
0.5875492	0.04392737	0.10452324
0.58004885	0.5596599	0.11683271
0.05375571	0.29731861	0.11472968
0.11831195	0.80272932	0.15120772
0.06756005	0.04764361	0.62948721
0.05222466	0.55062128	0.64977392
0.53564949	0.29078134	0.60292354
0.62297691	0.80801012	0.63248941
0.59436679	0.05600532	0.09260104
0.58204506	0.56002934	0.12467872
0.04640147	0.29472899	0.10731171
0.12332127	0.80286686	0.16658148
0.061019	0.04418345	0.62887707
0.04905892	0.54888659	0.64629443
0.53492508	0.29299065	0.6025363
0.61530381	0.80162171	0.64161771
0.60084188	0.06288905	0.08980176
0.5761193	0.55994748	0.12680723
0.04876703	0.29375761	0.09982471
0.11534161	0.80555865	0.17087373
0.05680167	0.04155147	0.62453363
0.05901083	0.55104203	0.64507592
0.54270221	0.29928746	0.59225841
0.60431274	0.79922235	0.65220447
0.58341602	0.05537575	0.09893821
0.56354519	0.55881643	0.11954294
0.05267268	0.29349106	0.09767829
0.1018624	0.80519056	0.16232395
0.04947422	0.04717195	0.61584956
0.06138014	0.55526045	0.64089183
0.55155952	0.30037653	0.58817249
0.60175523	0.80018864	0.65670113
0.56927148	0.04104575	0.1034343
0.55676451	0.5556157	0.11269562
0.04994796	0.29414265	0.10352587
0.10429877	0.79913135	0.15103821
0.04036417	0.05171531	0.60804147
0.04707071	0.55703565	0.62867437
0.54251896	0.29532181	0.5978909
0.6095972	0.80078489	0.65087116
0.57871188	0.0321629	0.09284932
0.56443249	0.55623269	0.10949911
0.04116126	0.29382251	0.10803447
0.11943366	0.79555119	0.1426316
0.03695123	0.0445042	0.60302184
0.03477489	0.55561504	0.62021639
0.53161835	0.28757755	0.61072413
0.6158613	0.79930798	0.64079393
0.58276129	0.04008932	0.08396645
0.5760441	0.55740116	0.11360445
0.03482417	0.29428492	0.10070512
0.13051773	0.80049286	0.14282033
0.04069088	0.03456387	0.60396089
0.04171185	0.55178529	0.61942426
0.53088574	0.28503378	0.61002083
0.60946098	0.79413851	0.63952523
0.57928937	0.05435168	0.08905133
0.58017436	0.55616666	0.1153807
0.0370774	0.29817144	0.09374673
0.12430018	0.80413654	0.15167613
0.0478159	0.03013646	0.60697884
0.05544459	0.54796571	0.62186601
0.53713204	0.28977635	0.60195039
0.60746568	0.79750885	0.65270713
0.57647832	0.0571399	0.09877905
0.57411154	0.55426744	0.11174344
0.04461665	0.30125831	0.09471723
0.1142325	0.80022793	0.16065885
0.05414712	0.03493023	0.60447199
0.05319317	0.54742864	0.61939819
0.54534605	0.29721959	0.60286335
0.61260629	0.80478779	0.66330797
0.5764589	0.04907447	0.09702279
0.56876323	0.55221476	0.10510235
0.04407505	0.30172166	0.1027086
0.11526144	0.7985848	0.15599576
0.0538036	0.04423514	0.6057816
0.03810341	0.55056806	0.61326252
0.5426773	0.30358429	0.61396547
0.61342134	0.80498847	0.65938645
0.58130874	0.04195567	0.08706577
0.57538411	0.55104886	0.09854938
0.04062285	0.29920385	0.1130187
0.12808927	0.8014977	0.14462533
0.05657982	0.05026494	0.60732828
0.04014648	0.5531371	0.61279791
0.53286369	0.30407619	0.62280925
0.60798179	0.80386737	0.64292341
0.58275117	0.04676896	0.08903381
0.58649463	0.55141387	0.10186515
0.04413892	0.29682882	0.11450735
0.13054823	0.80607794	0.14446501
0.06374572	0.04940511	0.60662661
0.06044968	0.55393069	0.61990484
0.53263016	0.30161869	0.61892756
0.60254948	0.8053844	0.63225286
0.58093361	0.05534234	0.10383098
0.58613163	0.55165288	0.10945096
0.06033991	0.29902342	0.10372189
0.11703843	0.80647554	0.14938786
0.07086954	0.04469738	0.60993617
0.07807681	0.55335706	0.62450491
0.54328378	0.30261883	0.60536196
0.60682228	0.81089593	0.63945866
0.58281727	0.0517909	0.11163678
0.58087305	0.55257377	0.11122074
0.07724435	0.3032927	0.09315339
0.10792507	0.80338389	0.14766042
0.08374833	0.04215693	0.60881977
0.08157153	0.55413732	0.62407524
0.55978028	0.30673178	0.60151224
0.61591579	0.81597829	0.65278268
0.58741884	0.04413859	0.10621623
0.58497357	0.55512266	0.11249868
0.08207879	0.30790091	0.09381683
0.11774758	0.80393367	0.13674538
0.09363042	0.04537645	0.60818878
0.07852268	0.55696514	0.62003853
0.57265349	0.31135218	0.6101493
0.62262705	0.81647886	0.64938186
0.59100559	0.04130975	0.096154
0.59822028	0.55954607	0.11838706
0.08381843	0.30870147	0.10325204
0.13139032	0.81004393	0.12518902
0.09721338	0.04956282	0.61204703
0.07985333	0.55933791	0.61863596
0.57496671	0.31105805	0.61664156
0.62634103	0.81490879	0.62712968
0.59435077	0.04809294	0.09824237
0.6123235	0.56190996	0.12830036
0.09506266	0.30404613	0.11138607
0.13197962	0.81596696	0.12732784
0.10228701	0.05119317	0.61686682
0.0975294	0.56086263	0.62259726
0.57940817	0.30801108	0.61651231
0.62607417	0.81332116	0.61263175
0.60368209	0.05743189	0.11195361
0.61827464	0.56124656	0.13459453
0.10477493	0.30178096	0.11128386
0.11944002	0.81590998	0.13498321
0.10852828	0.05216661	0.62096415
0.11176795	0.56131251	0.63212581
0.59461226	0.30975442	0.61738236
0.62346307	0.81590147	0.6227296
0.61238799	0.05885684	0.12300519
0.61752495	0.56130297	0.13190602
0.10617078	0.3058427	0.11045174
0.11298047	0.81230009	0.13477916
0.11475866	0.0562781	0.61662117
0.10995907	0.56206087	0.6386074
0.615447	0.3142885	0.6260509
0.6217756	0.82138349	0.64240382
0.61512853	0.05524892	0.12299051
0.61782643	0.56307955	0.13031805
0.10823993	0.31245393	0.11999738
0.12077313	0.81583945	0.13137557
0.11801722	0.06198104	0.61580181
0.1100209	0.5660409	0.63893952
0.63194381	0.31570082	0.63476283
0.6239839	0.82495716	0.63692774
0.62026199	0.05395918	0.11904408
0.62724002	0.56537598	0.13170659
0.11773055	0.31718308	0.13189779
0.13024336	0.82521385	0.12740396
0.11706168	0.06546191	0.62173265
0.12130718	0.56879266	0.63711002
0.63545089	0.31236594	0.63165735
0.63302524	0.82494836	0.61693109
0.63054695	0.05904707	0.1222071
0.64109668	0.56850012	0.13379525
0.13328951	0.31670319	0.13245365
0.12807324	0.82810703	0.1282366
0.11723714	0.06658708	0.62674987
0.13627209	0.56811874	0.64050688
0.6366094	0.31069978	0.62551252
0.64387105	0.82457273	0.62209439
0.64021599	0.06677123	0.13079882
0.65025814	0.57100845	0.13561008
0.14666018	0.316726	0.12522246
0.11998999	0.82241959	0.13125029
0.12256284	0.06740097	0.63494053
0.14590428	0.56737456	0.64918801
0.65063689	0.31470374	0.63103109
0.64942274	0.82449271	0.64048904
0.64371481	0.06854758	0.13078337
0.65118882	0.57268878	0.13428132
0.15063704	0.32122378	0.12417373
0.12021908	0.82070007	0.12657083
0.13438795	0.07215376	0.63680956
0.14647311	0.56769888	0.65232742
0.66806671	0.32107349	0.64650506
0.64556737	0.82636241	0.64266688
0.64868766	0.06642756	0.12437804
0.65211478	0.57504248	0.13525127
0.14709238	0.3255003	0.1298631
0.13233876	0.82588621	0.12260299
0.14377104	0.07607068	0.62919419
0.1492274	0.57175756	0.64754828
0.67534508	0.32443911	0.6521455
0.63895901	0.82721786	0.62807224
0.65459033	0.06827964	0.1243397
0.6616923	0.57841806	0.13799159
0.14689111	0.32433988	0.13707031
0.1448366	0.83251981	0.12173729
0.146843	0.07224333	0.6300624
0.15735175	0.57742206	0.64099246
0.67064295	0.32015961	0.64210977
0.642575	0.82640853	0.616999
0.65729902	0.07389907	0.13264396
0.67167017	0.58184812	0.13562224
0.15454612	0.32121213	0.14153274
0.14733261	0.83190775	0.11969552
0.14540597	0.06871267	0.63658867
0.16706734	0.58081592	0.63890844
0.67125392	0.31387857	0.63447753
0.64396012	0.82585608	0.62755031
0.66558173	0.07969767	0.14454488
0.66940234	0.58344583	0.12779295
0.16514748	0.32365479	0.13907633
0.14006169	0.82662645	0.11748682
0.14833124	0.07164978	0.64561189
0.170883	0.58080834	0.64094343
0.68100548	0.31611418	0.64117341
0.64170788	0.82602793	0.64822707
0.67291664	0.08101007	0.14827116
0.66123487	0.58270571	0.12036804
0.17347589	0.33057622	0.13585204
0.13212296	0.82867411	0.11762066
0.15878746	0.07373088	0.6495617
0.16688725	0.58009462	0.63714539
0.69066117	0.32530869	0.65303631
0.64923511	0.82650526	0.65760169
0.6734511	0.07699689	0.13912553
0.66095493	0.58185955	0.12053713
0.17644399	0.33388621	0.13824576
0.13358405	0.83595089	0.11984322
0.17079834	0.0714719	0.64266362
0.16803851	0.58051709	0.62994475
0.69223081	0.33147783	0.65375588
0.65705395	0.82755897	0.64905023
0.67443406	0.07238641	0.13846482
0.6727909	0.58150089	0.12290038
0.18023299	0.33225565	0.14361705
0.13577675	0.83923096	0.1199876
0.17429545	0.06746598	0.64080809
0.1763799	0.58163139	0.62919975
0.68355267	0.32584114	0.64225504
0.65556918	0.82894565	0.63138383
0.67658751	0.07214097	0.14724729
0.68167868	0.58189743	0.12244099
0.18989158	0.32842352	0.14841552
0.13111315	0.83733543	0.1178583
0.17033345	0.0678835	0.6505757
0.17853304	0.58179165	0.63157353
0.67990573	0.31946944	0.63111767
0.64830605	0.83051589	0.6187854
0.67832348	0.07720247	0.15063548
0.67947506	0.58228513	0.12102531
0.19702117	0.33115934	0.14629266
0.12716115	0.83547552	0.11201915
0.17004472	0.0753597	0.66582136
0.17809302	0.58023442	0.6301593
0.69403759	0.32357226	0.63533017
0.64311937	0.83161054	0.62101538
0.68014263	0.08292365	0.14603064
0.67148743	0.58103221	0.1211395
0.19356104	0.33911706	0.13569654
0.13025031	0.83952045	0.10898034
0.18274367	0.08130142	0.66695444
0.17686668	0.58117788	0.62539467
0.7101421	0.33244037	0.65250108
0.64167108	0.83256847	0.62570685
0.67918311	0.08241152	0.14238087
0.6670193	0.58042795	0.12659004
0.1852134	0.34020054	0.1349696
0.13823904	0.84582458	0.11160293
0.19919032	0.07962927	0.65063454
0.17837366	0.58501299	0.62143636
0.71586891	0.33413667	0.66239188
0.63942174	0.83313391	0.62291208
0.67999047	0.07609615	0.14658729
0.66670719	0.58326753	0.13162467
0.18541088	0.3338497	0.14576855
0.13598283	0.84595377	0.1104166
0.20333112	0.07182315	0.65348275
0.18328004	0.58493555	0.62275078
0.70978265	0.32764804	0.65385051
0.63610263	0.834364	0.61304919
0.68653687	0.07375443	0.14961521
0.66941384	0.5858621	0.12363226
0.18973915	0.32833104	0.15618759
0.1227836	0.8365185	0.10140388
0.19788999	0.06389583	0.66708078
0.18163075	0.58244381	0.6263472
0.70344228	0.32436166	0.63826527
0.63600474	0.83757165	0.60450649
0.69179947	0.07776792	0.14651217
0.67202464	0.58493192	0.1182354
0.18808162	0.32902058	0.15570304
0.11376395	0.8273868	0.08964909
0.19687502	0.06512338	0.66987361
0.17937381	0.57947967	0.625089
0.70345569	0.33685965	0.64319874
0.64205084	0.83821716	0.61177297
0.68588737	0.08165552	0.1418532
0.6760535	0.58296881	0.12580679
0.18488278	0.33302669	0.14770931
0.11802404	0.8282712	0.08907162
0.20563004	0.07252842	0.66038199
0.18026409	0.58059277	0.6190063
0.70767048	0.35117431	0.66561773
0.65168533	0.83827154	0.61966066
0.67588082	0.07883113	0.14254389
0.68383607	0.5814874	0.14078564
0.18811622	0.33073688	0.14307648
0.1269045	0.83714727	0.0930672
0.21766033	0.08086945	0.64454985
0.18288206	0.58503286	0.61623232
0.71431853	0.35091473	0.66707143
0.6529957	0.84078554	0.61529564
0.6782638	0.07307469	0.15265718
0.680618	0.58315857	0.15107491
0.19165846	0.32395758	0.14715692
0.13230096	0.84029746	0.08848998
0.21559483	0.08574401	0.63961909
0.18546759	0.585753	0.61752936
0.71602781	0.33758254	0.64996311
0.63750556	0.84434237	0.61307907
0.68637085	0.07208691	0.16281529
0.66908296	0.58402009	0.14838066
0.19168484	0.31898915	0.15576625
0.13406055	0.83090755	0.08515935
0.19447404	0.08599647	0.65007124
0.17738549	0.58298087	0.62272616
0.70705319	0.3220074	0.64573476
0.62438264	0.84845157	0.61447326
0.68396513	0.07583308	0.16233877
0.66301608	0.57981696	0.13928504
0.18969877	0.31892508	0.15658057
0.13192091	0.82182678	0.09037933
0.18894345	0.08483784	0.6564996
0.16859108	0.58130596	0.62606243
0.69802817	0.31455177	0.66360927
0.6283682	0.84672346	0.61976341
0.67798875	0.08151681	0.15402324
0.66274592	0.57774682	0.13737887
0.18652296	0.32345292	0.14309363
0.12668394	0.82246328	0.10213208
0.200088	0.08332485	0.65001098
0.16310935	0.58378927	0.62113549
0.69877155	0.32298255	0.67852629
0.65378124	0.83841109	0.62658628
0.67515599	0.08222955	0.14837674
0.66910481	0.57999996	0.1351349
0.18075782	0.32212476	0.1269678
0.12312185	0.82833193	0.11530416
0.19898127	0.08000714	0.64003288
0.14975336	0.58749696	0.61489201
0.70340847	0.33594801	0.66338951
0.66450172	0.83380654	0.62711125
0.68018517	0.07155178	0.15251116
0.66797454	0.58367304	0.12895152
0.17070172	0.31388791	0.12433478
0.12271887	0.82721984	0.10932897
0.1802242	0.07974719	0.63919078
0.13285564	0.58632096	0.61357805
0.69403196	0.34076403	0.64366946
0.6507224	0.83522301	0.6245098
0.68626171	0.0586196	0.16091486
0.65926812	0.5863927	0.12750875
0.15813531	0.30810442	0.12769604
0.12665795	0.82018957	0.09431595
0.16308618	0.08343103	0.65064125
0.11928878	0.58235333	0.62258358
0.67782181	0.33066682	0.64417378
0.63018964	0.83874032	0.61969578
0.6741436	0.05690161	0.16243863
0.6521978	0.58048682	0.12923229
0.15228058	0.30819108	0.13015255
0.13272771	0.81626588	0.09755488
0.1520448	0.08162876	0.65579527
0.12162533	0.58024271	0.63827884
0.66148288	0.31815735	0.66259507
0.62518453	0.83819261	0.61669307
0.66153013	0.0675335	0.1578469
0.65061087	0.57038167	0.13203142
0.15075773	0.31579063	0.12634834
0.13251533	0.81989893	0.11639313
0.14974947	0.07683859	0.64769405
0.13849333	0.58149713	0.63252273
0.65335313	0.31999317	0.67731056
0.63987532	0.83188707	0.62124698
0.65732888	0.07473768	0.15068596
0.64950006	0.56642685	0.12975735
0.14602047	0.32217272	0.11524881
0.12870891	0.82724167	0.13251114
0.15000187	0.07362114	0.63488576
0.14924742	0.58380815	0.61294637
0.64950225	0.32902315	0.6722693
0.64994765	0.82719955	0.62974059
0.65458437	0.07084467	0.1461412
0.6377535	0.56921777	0.12448501
0.13745379	0.32055987	0.11157519
0.12591248	0.82940128	0.12807957
0.14447632	0.07323729	0.62900412
0.14538597	0.58027521	0.61090852
0.64258076	0.3304458	0.6493466
0.6428138	0.82596361	0.63527129
0.64757171	0.06096081	0.14556841
0.62129871	0.57411166	0.1247364
0.13171865	0.32018824	0.11656092
0.12338062	0.82423471	0.11124686
0.1359744	0.07207664	0.63470409
0.1334722	0.5735933	0.62224731
0.63531745	0.32353544	0.63058825
0.62861685	0.82597682	0.63472761
0.63832234	0.05762484	0.14236482
0.61380517	0.57123145	0.12995727
0.12808436	0.32212333	0.1164543
0.1244702	0.82089976	0.10456658
0.128596	0.0692053	0.64218482
0.12710732	0.57023119	0.62863739
0.63290739	0.31707058	0.63270073
0.62536627	0.82778493	0.63087043
0.63756423	0.06883888	0.13748325
0.61872944	0.56372367	0.13136115
0.11901825	0.32339076	0.1122587
0.12188382	0.822493	0.11685172
0.12324983	0.06680843	0.63729489
0.13157767	0.57120154	0.62161915
0.6310211	0.3198035	0.64755214
0.6339985	0.827407	0.62942663
0.63798917	0.07644422	0.13731497
0.62694426	0.56264784	0.12731624
0.11083305	0.32172921	0.1089377
0.12026503	0.82697403	0.13267875
0.12243205	0.06261918	0.62876383
0.12771186	0.57373321	0.6116867
0.6246122	0.32467269	0.65323654
0.64203523	0.82571694	0.6310317
0.63363266	0.06835307	0.13784658
0.62013824	0.56829519	0.12131295
0.1119486	0.31669358	0.11129283
0.12551044	0.82886312	0.1323468
0.12406634	0.05992512	0.62888452
0.12011203	0.57466966	0.61725871
0.61850835	0.32299546	0.63977817
0.63943907	0.82583829	0.63517869
0.62610239	0.05700199	0.13479322
0.60526144	0.57194862	0.12052443
0.11728248	0.3146328	0.11917629
0.1275898	0.82638327	0.11516098
0.12133366	0.06095055	0.63614467
0.12130912	0.57143286	0.63015138
0.61687323	0.3152828	0.62266317
0.63091165	0.82687831	0.6368419
0.61485304	0.05580352	0.1309864
0.60762869	0.56813265	0.12785074
0.11675314	0.31741542	0.12301447
0.12442967	0.82486859	0.10810108
0.11357305	0.06078203	0.63726277
0.12396965	0.56696896	0.63982511
0.6182169	0.31065323	0.61841915
0.62810226	0.82679192	0.63137217
0.60698485	0.06265101	0.12809817
0.61978186	0.5617421	0.13194591
0.10899528	0.32089303	0.11909188
0.12049905	0.8249869	0.12122876
0.10819947	0.05812586	0.62921358
0.12828962	0.56559427	0.6363434
0.6156555	0.312202	0.62705089
0.6339733	0.82415609	0.62800316
0.60590308	0.06589339	0.12552413
0.62436471	0.56203263	0.12866321
0.09908956	0.32127698	0.11426809
0.12001264	0.8247507	0.13524448
0.10886048	0.05635161	0.62324301
0.12713335	0.56749587	0.62583104
0.61262589	0.31569586	0.63359255
0.63939119	0.81957828	0.63346103
0.60539251	0.0585647	0.12324391
0.61713008	0.5672375	0.12191506
0.0965165	0.31804408	0.11916112
0.1254507	0.82300007	0.13370796
0.11021333	0.05659964	0.62571846
0.11426941	0.56865054	0.62313348
0.6126903	0.31510019	0.62768502
0.63816361	0.81697242	0.63993853
0.60398667	0.05030376	0.12078008
0.60536169	0.57045109	0.12239627
0.10202438	0.3151353	0.13151699
0.13186794	0.82101603	0.1270232
0.10448692	0.05890083	0.63231673
0.10698941	0.56603265	0.63334845
0.61520448	0.31124611	0.62070756
0.63507495	0.81770151	0.64215477
0.60033996	0.05388398	0.11835254
0.60862885	0.56861849	0.12945344
0.10255818	0.31255673	0.13249706
0.13260679	0.82185392	0.1281772
0.09124086	0.06152445	0.63283948
0.10944328	0.56308896	0.6464482
0.61769775	0.30841455	0.62467593
0.63553163	0.82082525	0.63817622
0.59881496	0.06365138	0.11982226
0.62227834	0.56334881	0.13319833
0.09504449	0.3103416	0.1251848
0.12934784	0.82129659	0.13970504
0.08193119	0.06187798	0.62677269
0.11380557	0.56526756	0.65019143
0.61299383	0.3094371	0.63433675
0.63653674	0.81941685	0.63540461
0.60039195	0.06535212	0.12197271
0.6258964	0.56088614	0.12740144
0.09107598	0.30877924	0.1223766
0.12977995	0.81779514	0.14973207
0.08396225	0.06037781	0.62677432
0.11265038	0.56689585	0.6386183
0.6020093	0.31150098	0.63621798
0.63466151	0.81332351	0.64133818
0.59789614	0.05779757	0.1176232
0.61961404	0.56677441	0.11592427
0.09743737	0.30596038	0.12835813
0.13588364	0.81495967	0.14576132
0.09178288	0.0596892	0.63196885
0.10465275	0.56308607	0.63069853
0.5978941	0.31034907	0.62394716
0.63030714	0.8094402	0.64780001
0.59424311	0.05186086	0.10763282
0.61463502	0.57432876	0.11346267
0.10917452	0.30533209	0.13809863
0.14084965	0.81280265	0.13984464
0.09213488	0.06076152	0.63222825
0.10280952	0.55881254	0.64309913
0.59989763	0.30749368	0.61301064
0.62323717	0.81054772	0.64588199
0.58965963	0.05372385	0.09826461
0.6230105	0.57601292	0.12457296
0.11086067	0.30787965	0.14282594
0.13755308	0.81326072	0.1455272
0.08057738	0.05899733	0.62264261
0.10503081	0.55858729	0.65732574
0.59939826	0.30700923	0.61700818
0.62022346	0.81512493	0.63739405
0.58913356	0.05909715	0.09861701
0.6400274	0.56973133	0.13020491
0.09779146	0.31004114	0.13564549
0.12572566	0.81098794	0.15524928
0.07668342	0.05232749	0.61107133
0.10185629	0.5611335	0.64670663
0.59248395	0.30976376	0.62234832
0.62605987	0.81725456	0.63135859
0.60099971	0.06025514	0.10474345
0.64059813	0.56097141	0.1247835
0.08621636	0.3117644	0.12929182
0.11941446	0.80349456	0.15604352
0.08910824	0.04898076	0.61319167
0.09638986	0.56380131	0.63000355
0.58460837	0.31246607	0.61840689
0.6301167	0.8102134	0.63481094
0.61065877	0.05488438	0.10475511
0.63107115	0.55941317	0.11722663
0.09032857	0.30970686	0.13579774
0.12506297	0.80534436	0.1414394
0.101676	0.05085428	0.62744508
0.08615945	0.56270648	0.63731034
0.58536974	0.309864	0.60620971
0.63307325	0.80592842	0.63733318
0.61168773	0.0509458	0.0962951
0.61974417	0.5667244	0.11681876
0.10202384	0.3043592	0.14311531
0.13240297	0.80936661	0.13057396
0.10303421	0.05644017	0.63466484
0.08911808	0.56183386	0.65760596
0.59505069	0.30632421	0.59523746
0.63173756	0.81259435	0.63586687
0.60780448	0.05475145	0.08506033
0.61744427	0.5675874	0.12052248
0.10770804	0.29761541	0.13776308
0.12642059	0.80981336	0.13461213
0.10064899	0.05656037	0.62414633
0.10852241	0.56135633	0.65294803
0.59819349	0.30459495	0.59951346
0.62450114	0.81859446	0.63769429
0.60151527	0.061714	0.08144694
0.62987345	0.5547714	0.12301847
0.101786	0.2970899	0.12214949
0.11281295	0.81028715	0.14470411
0.10198061	0.04876773	0.60995504
0.10757466	0.55780774	0.63624068
0.58337539	0.30417932	0.61621144
0.61711319	0.81677863	0.6426278
0.60524009	0.06468481	0.08762085
0.63810407	0.55054162	0.12609692
0.09214683	0.30711885	0.10558445
0.10621519	0.80863587	0.14258803
0.10997057	0.0472305	0.6090507
0.09526964	0.55312134	0.63169756
0.55729315	0.30559361	0.62337351
0.61647254	0.81062105	0.64436139
0.61917923	0.06039564	0.08943145
0.636692	0.56157997	0.12729353
0.08766026	0.31029601	0.1081391
0.11542549	0.8093202	0.12708028
0.1222083	0.05282382	0.61652128
0.0960453	0.55004555	0.64160327
0.55939475	0.30990383	0.60985538
0.62180238	0.81305137	0.63262059
0.63414365	0.0487789	0.08296138
0.62762687	0.56517867	0.12921059
0.09073123	0.30724734	0.12298967
0.12536163	0.81232333	0.12118147
0.12921341	0.05372209	0.62878648
0.10812839	0.55490291	0.64978327
0.5965385	0.31502118	0.59928321
0.61831786	0.82313244	0.60942949
0.641984	0.03789315	0.08192728
0.62118699	0.5557582	0.13407567
0.09866368	0.30622026	0.13314304
0.12506148	0.81589065	0.12957246
0.12859002	0.04767887	0.63059485
0.12142866	0.56547854	0.63976195
0.61020188	0.31614689	0.60334017
0.6101347	0.82835915	0.59273903
0.6504838	0.04025488	0.09262542
0.62711312	0.54609236	0.1373093
0.10889196	0.30689521	0.11948937
0.11685038	0.82093035	0.13816378
0.12341411	0.04446189	0.62408014
0.11430608	0.5702958	0.61925954
0.59748671	0.31064533	0.61328726
0.60550057	0.8252255	0.60046581
0.66133379	0.04848968	0.10468282
0.63175454	0.54806448	0.13625568
0.1153229	0.31111902	0.10178283
0.11165332	0.82439208	0.1408741
0.11945856	0.05502307	0.62274279
0.09657047	0.5673901	0.61847793
0.5856748	0.30377413	0.61969842
0.60906429	0.8167181	0.62391606
0.66734111	0.0547043	0.10534337
0.62329649	0.55782796	0.13086057
0.11901941	0.31338541	0.11206547
0.11189008	0.82421235	0.13637134
0.12112556	0.06588066	0.62633375
0.09758925	0.55996523	0.63811163
0.59098005	0.30472205	0.61313305
0.62080562	0.80883559	0.6329607
0.66547995	0.05280636	0.09324891
0.61082015	0.56373394	0.11821815
0.12148208	0.30803113	0.12451596
0.10990364	0.82186038	0.12704104
0.12334866	0.06591103	0.62861876
0.10644896	0.55860783	0.65959993
0.61188727	0.31005022	0.60151367
0.61679786	0.8129127	0.6258563
0.65681997	0.05165782	0.09198891
0.60783571	0.56315362	0.10994043
0.12375855	0.30608882	0.12226944
0.10354607	0.81797728	0.12295983
0.12471201	0.05979222	0.62831374
0.11273256	0.5630925	0.66339883
0.62419851	0.3115625	0.60600338
0.60726076	0.8205059	0.61904763
0.64618592	0.05200233	0.10145238
0.61981541	0.5609078	0.11381918
0.12982367	0.31227668	0.11035582
0.10267976	0.81464409	0.12335866
0.12695276	0.0553892	0.62327143
0.10649375	0.56666562	0.64991791
0.61783067	0.30738488	0.61662261
0.60919574	0.82075358	0.63202116
0.64580455	0.05435301	0.10823861
0.62417885	0.56189313	0.12040083
0.13583823	0.31922692	0.10561879
0.11554044	0.81542715	0.12455603
0.12590948	0.05617716	0.61488111
0.09931318	0.56378913	0.6328483
0.61476033	0.30456122	0.61696012
0.61479689	0.81238026	0.65071888
0.65335112	0.05808407	0.11088666
0.61341413	0.56560594	0.12118892
0.13525769	0.32127138	0.11475995
0.12985524	0.81937887	0.12899261
0.12736833	0.06007393	0.61472577
0.10735366	0.55925335	0.62905884
0.62573135	0.30763127	0.61252114
0.61695713	0.80752634	0.65321744
0.65843988	0.0601773	0.10675263
0.61235957	0.5685506	0.11889617
0.1342281	0.31702026	0.12736159
0.13188376	0.82377139	0.1313271
0.12944061	0.06304071	0.61941452
0.11742873	0.56247906	0.63984991
0.64658763	0.31292636	0.60969894
0.61501612	0.81010445	0.64408695
0.6550772	0.06062025	0.1053785
0.62083841	0.56973954	0.11879848
0.13412422	0.31310104	0.13084154
0.12485473	0.82462916	0.13095726
0.12940807	0.0611448	0.61664433
0.11908325	0.56834632	0.63968016
0.65368131	0.31218071	0.61153385
0.61589727	0.81619626	0.64781627
0.64856071	0.06285737	0.11403311
0.62443668	0.57066626	0.12328605
0.1328652	0.31472371	0.12056924
0.11927831	0.82151523	0.13029143
0.130277	0.05797402	0.6142335
0.11710001	0.5682221	0.62341188
0.64578653	0.30658013	0.61931909
0.62151454	0.81674593	0.65948447
0.64439437	0.06809506	0.12206211
0.62344549	0.57232488	0.12630016
0.13448013	0.31832729	0.10867892
0.12546817	0.8200665	0.12971888
0.12605404	0.05632349	0.61992815
0.11324753	0.56561343	0.61344896
0.63802532	0.30498287	0.62680099
0.62419828	0.81229525	0.66047547
0.64038574	0.07018488	0.12488914
0.61925264	0.57453185	0.12310241
0.1342216	0.31990603	0.10850768
0.13299439	0.82241798	0.13323576
0.12433405	0.05738302	0.62734429
0.11278339	0.56448915	0.61719653
0.64005348	0.30923458	0.62992755
0.62334577	0.81060589	0.64831116
0.63494981	0.0684332	0.12152649
0.62287673	0.57424098	0.12013654
0.13435388	0.31806497	0.11507808
0.12918431	0.82431994	0.13870614
0.13021065	0.06028278	0.62742854
0.1157964	0.56544689	0.62594181
0.6523587	0.31526942	0.62857158
0.61784962	0.81621699	0.63736566
0.63004036	0.06745226	0.11644894
0.63180583	0.5707394	0.12542388
0.13832761	0.31657975	0.11974008
0.11896547	0.82300995	0.13744965
0.13446184	0.06105759	0.62295779
0.12050926	0.56550244	0.62542485
0.65557911	0.31653326	0.62927786
0.61491782	0.82080283	0.64047561
0.62798587	0.06693383	0.12286964
0.63598209	0.5695663	0.13348372
0.14210409	0.31891187	0.11922231
0.11409966	0.82227164	0.13371091
0.13508545	0.05721332	0.62113073
0.12437378	0.5627306	0.61886267
0.64375747	0.31189481	0.6310994
0.62081589	0.81983666	0.65153278
0.63409175	0.06807453	0.12936009
0.63513049	0.57240515	0.13560014
0.14440435	0.32128614	0.12022927
0.11806024	0.82499681	0.13475918
0.13440896	0.05305917	0.62355228
0.12954154	0.56084422	0.62080557
0.63888221	0.31176658	0.63383917
0.62717751	0.81727814	0.65385999
0.6371936	0.0699178	0.13033401
0.63612722	0.57485695	0.1292035
0.14036574	0.31990238	0.12655897
0.12624213	0.82909503	0.13867049
0.13837591	0.05443905	0.62685968
0.13381301	0.56211479	0.631302
0.6468258	0.31571384	0.63957275
0.6289646	0.82015081	0.64177756
0.63035524	0.06902406	0.12747243
0.64203058	0.57533054	0.12489795
0.13616771	0.31738131	0.13218685
0.12541817	0.8307738	0.13814378
0.1444685	0.05908266	0.62996739
0.13095991	0.56551648	0.63773668
0.65936309	0.3186676	0.63817608
0.62909639	0.82581383	0.62662655
0.62923042	0.06562154	0.12193456
0.65086029	0.57609966	0.12964651
0.13654192	0.31753925	0.12761811
0.11632405	0.82623292	0.12948161
0.14599204	0.05950998	0.63314851
0.13478391	0.5691321	0.63334964
0.65657584	0.31819103	0.63328933
0.63094861	0.82796996	0.62599842
0.63913566	0.06369151	0.12338395
0.65458893	0.5762812	0.13481359
0.13761078	0.32020163	0.11613586
0.11437159	0.82068904	0.12022194
0.1432947	0.0583269	0.63609049
0.14515741	0.57086846	0.62543357
0.63836633	0.31554351	0.6407443
0.63717814	0.82631738	0.63413084
0.64637006	0.06461246	0.12907231
0.6535024	0.57362338	0.13177588
0.13920951	0.32205566	0.1116829
0.12410999	0.82042311	0.12267623
0.13742938	0.06135483	0.63690246
0.14547962	0.57189637	0.62793809
0.63270079	0.31879914	0.64823438
0.64186138	0.82525694	0.63415973
0.64358252	0.06616971	0.12993907
0.65102743	0.57124989	0.12676626
0.13943566	0.31965653	0.12387895
0.13369189	0.8257264	0.13000509
0.1367133	0.06721776	0.63332694
0.1450399	0.57196283	0.64205431
0.64308814	0.32713143	0.65076758
0.63964716	0.82727793	0.62260128
0.63828585	0.06696384	0.12739412
0.6519232	0.56986696	0.12753291
0.13965508	0.31667118	0.13767622
0.12919759	0.82992561	0.12535914
0.14633557	0.07175167	0.63070441
0.14937944	0.57130097	0.64879122
0.65365401	0.33139782	0.64514911
0.63958453	0.83235323	0.61019783
0.63994737	0.06552379	0.1303567
0.66134544	0.57161326	0.13765754
0.14388545	0.31857302	0.14377868
0.12225941	0.82691601	0.10881009
0.15027851	0.07161228	0.63463987
0.15825621	0.57349182	0.64293521
0.65205683	0.32899304	0.63680938
0.64929708	0.83454713	0.60856471
0.64517472	0.06178457	0.14379566
0.6625131	0.57606031	0.14470842
0.1440085	0.32118733	0.14323239
0.13121369	0.82079185	0.10211806
0.14716346	0.06749968	0.63392095
0.16213515	0.57869526	0.64160481
0.63834975	0.32349639	0.63648202
0.66158926	0.83398396	0.62340873
0.64679352	0.06207818	0.15671534
0.65417395	0.57523733	0.13722903
0.14051123	0.31939054	0.13646916
0.14168862	0.81982833	0.11482796
0.14096372	0.0673795	0.62346492
0.15777121	0.58341338	0.64772103
0.633557	0.32207039	0.64126974
0.66434928	0.83391277	0.6256653
0.63353666	0.06833696	0.1582081
0.65641133	0.57077796	0.12357489
0.13555839	0.31653989	0.13262295
0.13970254	0.8270697	0.12792897
0.1332773	0.07413754	0.62446748
0.15737924	0.58414948	0.65266715
0.64394769	0.32817281	0.65276632
0.6610908	0.83375237	0.61138642
0.61560136	0.06920447	0.15005157
0.65871033	0.56772998	0.12011924
0.13111163	0.31625996	0.13763303
0.12970681	0.83495462	0.12227859
0.12778924	0.08479677	0.63959073
0.1641828	0.58512805	0.64274529
0.64903259	0.33241502	0.66236393
0.66947117	0.8323011	0.60340188
0.62116783	0.06420347	0.14078207
0.65953241	0.56658676	0.12651931
0.13069735	0.31556414	0.14430672
0.12911589	0.8338618	0.09913531
0.1217272	0.096424	0.64916103
0.17290257	0.59077763	0.62570765
0.64260495	0.32735671	0.66245032
0.67743736	0.83189195	0.60920835
0.64095885	0.06310339	0.14625382
0.6516558	0.56683625	0.13553887
0.13485986	0.31269652	0.15269281
0.14690421	0.82239463	0.09013857
0.11757351	0.10233434	0.65109603
0.17493373	0.59439863	0.62333617
0.63187854	0.32370022	0.65992969
0.66920845	0.83279228	0.61795565
0.63794975	0.06738842	0.16051992
0.63930959	0.56584101	0.13086069
0.14041403	0.30998256	0.15967671
0.16554846	0.81854115	0.10647455
0.11540727	0.09859855	0.65584558
0.16462438	0.59473377	0.642455
0.63124762	0.32789111	0.65690926
0.65350441	0.8336835	0.61588062
0.61894215	0.07052641	0.16807968
0.63814191	0.56481426	0.11820695
0.1377808	0.31314227	0.16439797
0.17200689	0.82483089	0.11836021
0.11163144	0.08705661	0.6705378
0.15019907	0.59304673	0.6621178
0.64651632	0.33683405	0.65595552
0.63978428	0.83367087	0.60608076
0.60511592	0.06752869	0.16664551
0.63836456	0.56774974	0.11884131
0.12312262	0.32188525	0.17479501
0.16031787	0.83006725	0.11422695
0.10887159	0.07683798	0.68528125
0.1462924	0.59330186	0.65564726
0.65252329	0.3384112	0.65737574
0.63702812	0.83201607	0.60380933
0.61123153	0.06316759	0.16793922
0.63504095	0.57172881	0.12737084
0.11246708	0.33059883	0.17460478
0.14417013	0.82494109	0.09670117
0.10618325	0.0730461	0.68865114
0.1475664	0.59703237	0.62721357
0.64090544	0.33211449	0.64451584
0.64938069	0.83323978	0.6104542
0.6248137	0.06345449	0.17509163
0.6335731	0.573054	0.13329227
0.10917008	0.3321148	0.16276386
0.14403519	0.81615386	0.09297706
0.10528295	0.07296627	0.67136805
0.15157584	0.59749936	0.60672135
0.62188158	0.32889324	0.63113726
0.66313529	0.83573393	0.61886455
0.62589229	0.06813693	0.17373784
0.63251971	0.5710537	0.12820984
0.10845336	0.32897074	0.15437959
0.15146947	0.81745721	0.10536298
0.11155765	0.07765853	0.66018662
0.14855145	0.59169296	0.61315088
0.61374332	0.33345085	0.64969968
0.6726396	0.83710689	0.62052105
0.6136428	0.06961494	0.16368765
0.63294193	0.56693784	0.11901331
0.10737974	0.32311662	0.1529551
0.15305766	0.82806467	0.10809052
0.11973797	0.08158604	0.67363387
0.13393586	0.58597054	0.63352453
0.63166565	0.33778841	0.67170212
0.67386603	0.83817519	0.61524628
0.60639258	0.06378132	0.15955013
0.62883504	0.56640979	0.12290737
0.10303191	0.31739548	0.15694934
0.15221958	0.83086155	0.09982559
0.12168897	0.08130947	0.6886467
0.12649013	0.58470568	0.64612586
0.64318029	0.33639613	0.6711978
0.66770748	0.83683513	0.61509476
0.62030424	0.05856421	0.15660584
0.61871418	0.56993068	0.12643603
0.10047705	0.3171291	0.15512143
0.1440308	0.82350637	0.09270887
0.11819875	0.08110413	0.68498718
0.12765227	0.58729084	0.63548331
0.63660841	0.33258126	0.65860363
0.65960218	0.83900452	0.62235322
0.62932382	0.05905218	0.15917377
0.61523011	0.57233266	0.12164358
0.10343965	0.31842606	0.14332725
0.13965665	0.81665331	0.09774573
0.11784957	0.08040483	0.66910547
0.13262307	0.58981538	0.61805958
0.62274035	0.33167181	0.64870776
0.65101361	0.84092764	0.6269361
0.61834697	0.06321607	0.16453836
0.62382831	0.57230193	0.11993071
0.10937048	0.31763131	0.13888817
0.13978249	0.8198979	0.10823798
0.12350016	0.07727332	0.65924641
0.13136382	0.58721172	0.61523049
0.61151219	0.33481006	0.64974379
0.64604508	0.83790107	0.62982752
0.60574516	0.06566939	0.16257674
0.63362154	0.56975637	0.12105829
0.11118818	0.31497683	0.1422609
0.13584343	0.82691812	0.11041848
0.12508636	0.07287304	0.66427045
0.12321311	0.58048378	0.62988199
0.61531124	0.33713089	0.64938686
0.64867858	0.83534777	0.63064679
0.6088945	0.0647427	0.15591225
0.63260234	0.56739292	0.12794672
0.10562533	0.3126292	0.1441185
0.13250845	0.82825956	0.10422946
0.12037823	0.07006451	0.66573364
0.12145475	0.57458228	0.63357211
0.62769723	0.33328183	0.64158747
0.65579335	0.83495933	0.63097329
0.61975007	0.0628489	0.15041879
0.62455419	0.57029522	0.13566014
0.10238655	0.31503743	0.13914902
0.13202928	0.82145974	0.10179716
0.11269359	0.0703816	0.65539923
0.12202767	0.57355165	0.61840818
0.62428634	0.32470502	0.6373909
0.65856322	0.83671861	0.63396089
0.61998627	0.06310444	0.14736317
0.62437387	0.57178903	0.13479171
0.10759847	0.31768712	0.12870509
0.13343363	0.81460601	0.10592928
0.10592589	0.07239228	0.64207535
0.12205525	0.57694532	0.60574178
0.61426804	0.31904813	0.64114841
0.65180772	0.83728772	0.63669006
0.61048435	0.06588053	0.15021028
0.63178076	0.56713195	0.12567759
0.11518507	0.31629828	0.1233932
0.13600781	0.81435174	0.11338069
0.10587732	0.07467664	0.63965156
0.12270199	0.57766372	0.60630296
0.61268936	0.31944331	0.65038454
0.63902264	0.83514166	0.63544638
0.60597167	0.06567197	0.15194798
0.63665745	0.56430963	0.11809504
0.11579226	0.31408297	0.12748765
0.12999019	0.81953455	0.11466496
0.10986947	0.07195794	0.64917487
0.11655038	0.57393081	0.61681109
0.62002653	0.32247432	0.6511142
0.63671103	0.83136715	0.63171696
0.60988492	0.0610489	0.14842812
0.63098816	0.56729805	0.11676431
0.10855612	0.31292561	0.13406968
0.12514597	0.8222957	0.11031696
0.11483204	0.06739373	0.65187265
0.1141876	0.57166348	0.62397446
0.62671951	0.32168614	0.64058177
0.64086581	0.82729412	0.6307082
0.6190885	0.059671	0.14659016
0.62239038	0.5720938	0.12337458
0.10153775	0.31317341	0.13162936
0.1258477	0.81891436	0.10788421
0.11899586	0.0672479	0.63917351
0.11966128	0.57213873	0.61996642
0.62293285	0.31695965	0.6341557
0.63800653	0.82503185	0.63060476
0.62350231	0.0617311	0.14785238
0.62479726	0.57254482	0.12929522
0.10966526	0.31336424	0.12111531
0.12161035	0.81545485	0.11018549
0.11874545	0.06692918	0.62494025
0.1243451	0.57369777	0.61979669
0.61572018	0.31810389	0.63643254
0.62872713	0.82455485	0.63070273
0.61743663	0.06417737	0.14981515
0.63377221	0.56803175	0.12931822
0.12030169	0.31277023	0.11394224
0.12208465	0.8174122	0.11431489
0.1146959	0.06307921	0.62271982
0.12601373	0.57171666	0.6231773
0.61473327	0.3223359	0.64351923
0.62471927	0.82239611	0.62890348
0.61345342	0.06360514	0.14862806
0.63368274	0.56326711	0.12375861
0.11874599	0.31289782	0.1183509
0.12375393	0.82278803	0.11318782
0.11443793	0.060171	0.63268958
0.12347926	0.5654491	0.6229199
0.62208968	0.31755874	0.64815374
0.63174006	0.81643861	0.62627414
0.62339133	0.05955603	0.13948919
0.62423423	0.56313942	0.1195294
0.11110313	0.31543861	0.12731951
0.12247629	0.82529848	0.1138159
0.12111576	0.06020536	0.63514909
0.11887895	0.56455473	0.62229476
0.63172464	0.30963729	0.64294662
0.6397662	0.81141652	0.62758159
0.63567635	0.06019764	0.1294704
0.61359991	0.56755351	0.12538125
0.11302505	0.318779	0.12681136
0.12345929	0.82381496	0.12343154
0.13024316	0.06150026	0.62263339
0.11888207	0.57023303	0.61929893
0.63258495	0.30557865	0.6338657
0.63172527	0.81313796	0.63231641
0.6365317	0.06465094	0.12582419
0.61764702	0.56880579	0.13243445
0.12702217	0.31992831	0.11455243
0.11798888	0.822256	0.13154744
0.13019135	0.06026284	0.61330597
0.12251588	0.57235668	0.62350662
0.62584757	0.30682671	0.63099062
0.6139104	0.81836834	0.63609077
0.62637852	0.06589863	0.12571284
0.62891786	0.56564338	0.13045971
0.13611858	0.31794166	0.10563991
0.11118907	0.82357625	0.13486702
0.12192053	0.05571392	0.61946839
0.1276746	0.56914692	0.63664903
0.62398034	0.30952539	0.63465475
0.60691511	0.81723033	0.63377184
0.62025672	0.06273451	0.12251676
0.63046391	0.56554997	0.12493014
0.1332136	0.31463582	0.10958724
0.10991889	0.82643633	0.13452896
0.12311939	0.05096894	0.62928944
0.12607475	0.56430759	0.64464987
0.62776672	0.30895528	0.63201063
0.6162569	0.81203939	0.62876839
0.63142496	0.05899389	0.11094809
0.62088774	0.5707505	0.12599784
0.12263878	0.3137978	0.11642803
0.11204993	0.82686923	0.1366389
0.13260867	0.04849552	0.62188706
0.11956949	0.56151067	0.64464325
0.63238619	0.30648914	0.62035202
0.62563141	0.80679272	0.62965878
0.64501704	0.06017124	0.09636513
0.61394001	0.57701894	0.13689882
0.11590437	0.31780646	0.11083292
0.11763037	0.8227434	0.14812556
0.14269378	0.05067119	0.6054085
0.11978211	0.562303	0.64023619
0.63318414	0.30798037	0.6091441
0.62016773	0.80786286	0.6299579
0.64012415	0.0619031	0.09197771
0.61992379	0.57591263	0.14415313
0.12322871	0.32352714	0.10068418
0.11668052	0.81863995	0.1583237
0.14968027	0.0542299	0.60809922
0.11787516	0.5610454	0.63683774
0.62924748	0.30918762	0.60117748
0.6064961	0.81203133	0.63234132
0.63147767	0.0609162	0.09184214
0.6322396	0.57077336	0.13746377
0.13678869	0.3254142	0.10276638
0.11093004	0.81958241	0.15948067
0.14191207	0.05231434	0.62469852
0.11495982	0.55606371	0.64040302
0.63293258	0.30525229	0.60214362
0.61001337	0.81004158	0.63752868
0.64106852	0.06158038	0.08281256
0.63358828	0.56953496	0.12350923
0.14038773	0.32433753	0.11846928
0.11143769	0.82472364	0.16280892
0.12837969	0.0482075	0.63171389
0.11896342	0.55190038	0.64401206
0.64819696	0.29667288	0.60837846
0.62386916	0.8060995	0.64224994
0.66253294	0.06538259	0.06302412
0.62653462	0.57178946	0.11488066
0.13340069	0.32372057	0.12639473
0.11549125	0.82862687	0.17352145
0.12120789	0.04604907	0.61177682
0.11893606	0.55277146	0.64512146
0.65901023	0.28742449	0.59798507
0.6252127	0.80680013	0.64693224
0.67381956	0.06846525	0.04244612
0.62152118	0.57391097	0.11714796
0.13581317	0.32455203	0.11620586
0.12046084	0.82648182	0.18586774
0.11656315	0.04550893	0.58409009
0.12432909	0.55827772	0.65130476
0.65791776	0.28387128	0.58531019
0.60870909	0.80918259	0.64832094
0.66623142	0.06859546	0.04011212
0.626013	0.56644236	0.12220521
0.14868355	0.32240434	0.10542184
0.12301674	0.82024729	0.18812164
0.12420097	0.04635567	0.57434388
0.12830899	0.55988921	0.65986757
0.65133089	0.28820476	0.58660869
0.5935905	0.80706934	0.64504858
0.65524946	0.06486248	0.04502299
0.63804786	0.55831808	0.12934913
0.15398786	0.31539861	0.10716216
0.12140386	0.81643037	0.17557555
0.13868753	0.04787996	0.58305917
0.12732363	0.55433405	0.66359357
0.64795407	0.2956666	0.58965414
0.59969943	0.79902481	0.63676
0.65849095	0.05958338	0.04340027
0.64129188	0.56205897	0.13563749
0.15184054	0.30912455	0.11778791
0.12170284	0.81807291	0.1652067
0.1475733	0.04699285	0.59411088
0.12278141	0.54812539	0.66004278
0.6465039	0.30120785	0.59065757
0.61214088	0.79515947	0.62902459
0.67396057	0.05857613	0.03650668
0.63188019	0.56926589	0.13463926
0.15032717	0.30945029	0.11972908
0.12422212	0.81943574	0.17004129
0.14979635	0.04632737	0.59114194
0.11432642	0.54598328	0.65840313
0.64669814	0.2990911	0.58709326
0.61048051	0.79692999	0.63621944
0.68296473	0.06276005	0.03651657
0.62841609	0.57089145	0.13130789
0.16086656	0.31391931	0.10811425
0.1241162	0.81927533	0.17910772
0.14465933	0.04926853	0.57479986
0.11061709	0.54596772	0.66709598
0.64952543	0.29260907	0.57757195
0.59813474	0.80077608	0.64785482
0.67425448	0.06625403	0.05026034
0.6405175	0.56891326	0.13257897
0.17681979	0.31388416	0.09657541
0.12194704	0.81784233	0.17951225
0.13880264	0.04608974	0.55981092
0.11734436	0.54628628	0.67543371
0.65213717	0.29357956	0.57684381
0.5933398	0.80487039	0.65308602
0.66191098	0.06514365	0.05771868
0.65810617	0.56599123	0.13619576
0.17752401	0.30769463	0.09781308
0.11939548	0.81575981	0.16675466
0.13414084	0.04131118	0.57029928
0.1264284	0.54376457	0.67602167
0.65325721	0.30007585	0.58809343
0.60196218	0.80688418	0.65958764
0.66357484	0.06376307	0.05062433
0.6573571	0.5641002	0.13133898
0.16257636	0.30493675	0.11640077
0.11827785	0.81503747	0.15490816
0.13554824	0.04032755	0.59399136
0.13262207	0.54006758	0.66701907
0.65076284	0.29923653	0.59906179
0.61476918	0.80659828	0.65883984
0.6729348	0.06243145	0.04324629
0.64215793	0.56435116	0.12311002
0.15568281	0.30728055	0.12666424
0.11889286	0.81538871	0.15960514
0.14505665	0.04068865	0.59930224
0.12783619	0.54123894	0.66168831
0.6456349	0.29598084	0.59804142
0.6148647	0.80488003	0.65659997
0.67578809	0.06242912	0.04664222
0.63491391	0.5642161	0.1227268
0.16159149	0.31000002	0.12239937
0.11968432	0.8156997	0.16774334
0.1430623	0.0424259	0.58843343
0.11526312	0.54398912	0.66361015
0.64029136	0.29723956	0.58731856
0.60515468	0.80565407	0.66139991
0.66916727	0.06359963	0.06345416
0.64577222	0.56400741	0.12956026
0.17172392	0.30870979	0.11750816
0.12129149	0.8151395	0.1630369
0.13404184	0.04248557	0.57969575
0.11013913	0.54530124	0.66309255
0.63865497	0.30489108	0.58334419
0.60222891	0.80803307	0.66364199
0.66155124	0.06265449	0.08302654
0.6592875	0.5641632	0.13595349
0.17765121	0.30636435	0.12239537
0.11882362	0.81339201	0.15195967
0.13503343	0.03917668	0.59113142
0.11440824	0.54788257	0.66216615
0.64033043	0.31195012	0.59106816
0.61017844	0.80966944	0.66719745
0.66360332	0.06224577	0.09364983
0.65498326	0.5643803	0.13848181
0.17360732	0.30716727	0.13392163
0.11279266	0.81394223	0.14457541
0.14246283	0.0380789	0.60943804
0.12284231	0.54854646	0.66034107
0.6388793	0.31055871	0.60067869
0.61557625	0.81027534	0.6679109
0.66921436	0.06114569	0.09331418
0.64195086	0.5659906	0.14047749
0.16340063	0.31130027	0.13346762
0.10948996	0.81514124	0.1467831
0.14728288	0.04068545	0.60663761
0.12443073	0.54911544	0.6581099
0.64013343	0.306523	0.60698932
0.61392668	0.80943599	0.65895268
0.6654096	0.05883277	0.08930194
0.64389241	0.56771286	0.14155089
0.15553629	0.31431979	0.11654532
0.10860459	0.81582135	0.14854777
0.14088191	0.04714196	0.59814367
0.11135521	0.55273088	0.65785142
0.64399527	0.30520863	0.60905509
0.61411428	0.80978904	0.64894976
0.65505881	0.05853737	0.09634177
0.65408354	0.56911416	0.13961687
0.14867802	0.31366593	0.10811515
0.11286388	0.81774427	0.13848973
0.12939304	0.05271624	0.60415376
0.11003315	0.55413764	0.6505046
0.64143467	0.30699065	0.61119611
0.61980669	0.81279166	0.64108427
0.65112265	0.05932873	0.11181429
0.65722798	0.56967041	0.13568493
0.14317583	0.31372187	0.11453725
0.1185809	0.81855172	0.13041682
0.1335292	0.05397791	0.61793339
0.12201166	0.5553371	0.64015464
0.63984312	0.30837721	0.62064652
0.62235975	0.81290104	0.64094711
0.65882273	0.06153403	0.11865035
0.64868304	0.56848399	0.13001346
0.14218927	0.31539549	0.12102683
0.11616177	0.81885373	0.13494599
0.14462826	0.05479532	0.62671889
0.12397705	0.55843954	0.63477505
0.64115066	0.30825439	0.63360979
0.61961381	0.81120913	0.64143141
0.66097274	0.06414122	0.11319698
0.63308245	0.56928048	0.12704411
0.14400013	0.31549074	0.11542022
0.11071599	0.81976821	0.14199706
0.14752128	0.05733639	0.62063385
0.11959678	0.562394	0.63295554
0.64113428	0.30807272	0.63755424
0.61496222	0.81353492	0.63477595
0.64913536	0.06410829	0.10904949
0.62992508	0.57052778	0.12773978
0.14126747	0.31436279	0.10630466
0.10816129	0.81957946	0.140178
0.14031558	0.05900783	0.61617027
0.11146841	0.566822	0.63437385
0.63999328	0.30844911	0.63018772
0.61272418	0.81717725	0.62583728
0.63891341	0.06301359	0.12172131
0.64095086	0.5709245	0.13084415
0.13588701	0.31472224	0.10990578
0.11207877	0.8196936	0.12547437
0.13292554	0.05997738	0.62880519
0.11527909	0.5695237	0.63299348
0.63751829	0.30973009	0.62456378
0.61756869	0.81913096	0.61948331
0.63823427	0.06341632	0.13943891
0.64380009	0.57163646	0.13496361
0.1352014	0.31675177	0.12313004
0.11969656	0.81967943	0.11329898
0.13814957	0.05867046	0.64340439
0.12993735	0.57058475	0.62889633
0.63578935	0.31140262	0.63075013
0.6228202	0.818676	0.62266538
0.64463178	0.06564128	0.13983394
0.62855848	0.57359888	0.13638158
0.13224008	0.31846362	0.13162881
0.12062429	0.82234589	0.11647332
0.14808535	0.05968398	0.64459162
0.13280227	0.57093061	0.62629704
0.63363745	0.3110641	0.64065138
0.62531892	0.8195293	0.62930944
0.64302833	0.06780715	0.12944783
0.61459847	0.57562332	0.1343661
0.12257358	0.31903559	0.12619723
0.12115105	0.82756792	0.12558241
0.1476227	0.06613308	0.63459779
0.1228984	0.57063455	0.62506088
0.63259072	0.30973949	0.64391448
0.62823851	0.82210538	0.62296411
0.63008115	0.06697369	0.1271524
0.61755265	0.5748646	0.12883499
0.11296529	0.32004364	0.11474989
0.12769396	0.8290203	0.12417807
0.1361908	0.07200691	0.63325106
0.11723627	0.57189929	0.62500437
0.63452527	0.31109921	0.64100501
0.63202449	0.82381947	0.61705993
0.6223704	0.06499937	0.13930876
0.63030079	0.57346415	0.12100897
0.10803926	0.32142401	0.11856481
0.13439745	0.82917263	0.11278429
0.1255021	0.07387038	0.64915765
0.1265255	0.57695997	0.62291884
0.63526861	0.31596	0.64222184
0.63709115	0.82411784	0.62029642
0.62454955	0.0659901	0.1535424
0.63246264	0.57181679	0.11590206
0.10844695	0.32243672	0.13330703
0.13585822	0.82951914	0.10891764
0.12770132	0.07389509	0.65510102
0.14302065	0.58243881	0.61746672
0.63702783	0.3209222	0.6522741
0.63877106	0.82388839	0.62641847
0.62416221	0.06790521	0.15685705
0.62430587	0.56990992	0.11244992
0.10908292	0.32173047	0.14662261
0.13311513	0.82800578	0.11736082
0.13211269	0.07585164	0.64572234
0.14903369	0.58484284	0.61406342
0.63991905	0.32134513	0.6578302
0.63661104	0.82599885	0.63087687
0.61559379	0.06537577	0.15409435
0.61699752	0.56893126	0.11354806
0.10733583	0.31898904	0.14387709
0.1318659	0.82759939	0.11916046
0.1259369	0.07986076	0.6415381
0.14222953	0.58367777	0.61781656
0.63804756	0.3218105	0.65118607
0.63845056	0.83116419	0.62608666
0.60261919	0.05981436	0.15927231
0.61474764	0.56877396	0.11645084
0.10377985	0.31872839	0.1344272
0.13588625	0.8266591	0.10763769
0.11741775	0.08106335	0.65203591
0.13229514	0.58275934	0.62139293
0.63380229	0.32691167	0.64089885
0.64278659	0.8372647	0.62333695
0.59634212	0.05789557	0.17300461
0.62113615	0.56895272	0.11506068
0.10378552	0.32257991	0.14321939
0.14447004	0.82645529	0.09490204
0.11049449	0.08006359	0.67126162
0.13053503	0.58423974	0.61614238
0.63132737	0.33193182	0.63970223
0.6496115	0.84158626	0.62931024
0.59942083	0.06303875	0.18517725
0.62626716	0.56940326	0.11210083
0.10728599	0.32411697	0.15214189
0.14965072	0.82947054	0.09649585
0.10825884	0.08078339	0.67797842
0.14037227	0.58457911	0.60921843
0.63195935	0.33485481	0.64920196
0.65841423	0.84285383	0.63378365
0.60411415	0.06917451	0.18490223
0.62339091	0.56860315	0.11201719
0.10895053	0.3216379	0.14802386
0.14492869	0.83178655	0.10723231
0.10924064	0.08380081	0.66727746
0.14061593	0.58255076	0.60602889
0.63483598	0.33665952	0.66344176
0.66213421	0.84320166	0.63461756
0.60571552	0.06698356	0.17126177
0.62281236	0.5666442	0.11501178
0.10369175	0.32013214	0.13783397
0.14158903	0.83044352	0.10865258
0.10399822	0.0865797	0.6605896
0.12822682	0.58365533	0.60838589
0.63444811	0.33948464	0.67114442
0.6699973	0.8441756	0.6283825
0.60235169	0.05960356	0.16356643
0.62757177	0.56624014	0.12091819
0.0937617	0.32101184	0.13107144
0.14627361	0.82572838	0.09777238
0.10177759	0.08570175	0.66958791
0.12727428	0.58993059	0.61294747
0.62517201	0.34289298	0.66781195
0.67470504	0.84498052	0.61862376
0.59758042	0.06031968	0.17396558
0.63260173	0.56914054	0.12086098
0.08710106	0.3228936	0.14028143
0.15034539	0.82180373	0.08657766
0.10235725	0.08075165	0.68565721
0.13732162	0.5947383	0.612656
0.61570092	0.34416024	0.65880379
0.6741487	0.84702731	0.61263099
0.59682814	0.06632954	0.19359031
0.63656529	0.57125238	0.11724383
0.09446092	0.32192969	0.15038976
0.14645013	0.82248918	0.08356865
0.10065966	0.07775176	0.68832985
0.14533126	0.59281063	0.60777425
0.61939073	0.3451679	0.65420345
0.68052505	0.84549559	0.61093983
0.59431408	0.06873115	0.19836107
0.63680963	0.56865874	0.12084052
0.10484946	0.31645652	0.14611831
0.13446928	0.82512815	0.08717366
0.09814534	0.08166021	0.67432552
0.14435594	0.58808494	0.60493427
0.62581957	0.34635474	0.66033989
0.6874527	0.84537614	0.61207008
0.59194765	0.06491237	0.18065125
0.63509173	0.56846724	0.12840153
0.09529118	0.31236867	0.13109969
0.12523488	0.82532356	0.08311632
0.09184779	0.08607147	0.66431364
0.13326746	0.58617342	0.60770187
0.61536648	0.34612319	0.66499843
0.69160601	0.85261403	0.61008967
0.59034509	0.06117672	0.17185772
0.64136664	0.57157223	0.13750327
0.08173568	0.31474458	0.12341811
0.13314767	0.82322336	0.07807672
0.09230337	0.0846117	0.67033612
0.13047652	0.59074182	0.61326209
0.5994097	0.34480342	0.66233962
0.68963873	0.85182987	0.6058562
0.5825049	0.06263912	0.18188219
0.64961724	0.5731889	0.14362716
0.08593366	0.3184171	0.13239174
0.15169402	0.82178602	0.080414
0.09933257	0.08002409	0.68169658
0.13473648	0.59775436	0.61532197
0.59377486	0.34254646	0.65931666
0.67904357	0.8473467	0.60179341
0.58259348	0.06795983	0.18579415
0.64529409	0.57484767	0.14391903
0.09738038	0.32000563	0.1456043
0.15580754	0.82405712	0.08862672
0.09500068	0.07919658	0.68368142
0.14164292	0.6005977	0.61861798
0.59644773	0.34099842	0.66399665
0.67040339	0.84443852	0.59489967
0.59676949	0.07152359	0.17895579
0.63609137	0.57516928	0.13943801
0.0897973	0.31645693	0.14990899
0.13969597	0.8262518	0.09719514
0.08839727	0.08372562	0.67040159
0.14859921	0.59716462	0.62558629
0.6024494	0.33798306	0.67403613
0.66639257	0.84093414	0.59109919
0.60349936	0.07059684	0.16888969
0.63572392	0.57497157	0.12838273
0.06946852	0.31347849	0.14609522
0.1243893	0.82265622	0.09085116
0.08951629	0.09136328	0.66319616
0.14517432	0.59174312	0.62767773
0.60054836	0.33028575	0.67107876
0.66374859	0.83979627	0.5918127
0.59570819	0.06693774	0.16732417
0.64319792	0.57662626	0.11727949
0.07772176	0.31730582	0.14037988
0.12878407	0.81804455	0.08825076
0.09534943	0.09557075	0.66290231
0.13739085	0.58938638	0.62512637
0.59284474	0.32397996	0.65552686
0.66017307	0.83698255	0.59074756
0.58196418	0.06277232	0.17222098
0.64420034	0.57749039	0.11784846
0.10212165	0.3230167	0.13758368
0.145426	0.81676529	0.1031347
0.10675998	0.09315954	0.65780026
0.13422276	0.58993166	0.62305374
0.59141398	0.32461876	0.65099231
0.65479408	0.83682783	0.59667298
0.57669345	0.06123529	0.17375525
0.63534926	0.5751689	0.12599977
0.11311645	0.32412874	0.13663861
0.15707346	0.82005119	0.10594222
0.11621879	0.08377998	0.65201831
0.12893986	0.58691968	0.62233797
0.59790888	0.32975516	0.66063301
0.65252798	0.84037232	0.60549739
0.58637439	0.06082003	0.16718132
0.62566486	0.57068294	0.13660539
0.10892183	0.31888746	0.1356738
0.14887849	0.82398547	0.09983436
0.11791449	0.07551193	0.64626043
0.12692571	0.58137679	0.62242198
0.60900774	0.33574111	0.66850663
0.6563137	0.84120368	0.61325523
0.59554685	0.06028008	0.15878236
0.61994822	0.56733523	0.13428344
0.10198121	0.31300384	0.1339805
0.13584743	0.82034249	0.10017535
0.11252142	0.07389503	0.64567639
0.12461498	0.57752093	0.62384463
0.61438425	0.33044466	0.66224969
0.65914315	0.83648589	0.61995395
0.59324919	0.06163859	0.15454263
0.61907674	0.56632728	0.12450806
0.1034822	0.31410358	0.13468185
0.1392962	0.81918923	0.10895765
0.11079554	0.07655276	0.65410232
0.12264723	0.57376566	0.6313855
0.61091631	0.32085778	0.64782536
0.65447075	0.82696895	0.61643361
0.58753329	0.05967906	0.15092809
0.6193486	0.56822288	0.13185682
0.11012916	0.31849002	0.13699589
0.15221179	0.82408157	0.12196877
0.11262473	0.07522801	0.65526476
0.12479844	0.57244433	0.63957991
0.6066547	0.32094736	0.64543139
0.64558585	0.82064769	0.62083557
0.59677628	0.06105113	0.14720315
0.61880569	0.57114973	0.13114121
0.11052153	0.31901571	0.13679037
0.15519864	0.82872487	0.12593294
0.11366058	0.0675748	0.64780167
0.12827724	0.57232826	0.63573433
0.60890064	0.32508152	0.6516703
0.64630653	0.82501715	0.6346467
0.61542585	0.06669682	0.14163232
0.61835303	0.57199903	0.12524316
0.10694675	0.31525201	0.13646391
0.14307028	0.82964912	0.11995915
0.11576255	0.0623843	0.6334004
0.13219746	0.57143669	0.62197789
0.62165014	0.3251452	0.64870715
0.65390263	0.83027358	0.64311742
0.62592446	0.0667646	0.13248615
0.61965137	0.56838214	0.12390776
0.10371653	0.31314027	0.13898318
0.12592793	0.82593919	0.11572229
0.11676697	0.06247279	0.62581668
0.13140686	0.57043551	0.61874446
0.63200785	0.31528671	0.63623283
0.65010559	0.82898223	0.64606987
0.62523532	0.06630992	0.12303253
0.6250204	0.56322037	0.12213795
0.1044976	0.31661869	0.12711489
0.12349714	0.82243068	0.11906394
0.11395526	0.06250527	0.62688114
0.12768565	0.56848912	0.6308175
0.62938594	0.3056532	0.62489496
0.6402187	0.82158993	0.64332025
0.62512676	0.06337843	0.1167504
0.62801097	0.56372961	0.12427116
0.10925077	0.32088255	0.11781466
0.13309608	0.82272139	0.13109047
0.11513562	0.0601591	0.62590013
0.12049935	0.56452362	0.64061014
0.6265788	0.31166557	0.62509363
0.62949094	0.81643952	0.64257633
0.63461177	0.06067723	0.11849365
0.6291551	0.5662522	0.12678519
0.11566984	0.31964237	0.12232076
0.13865869	0.8247413	0.13489428
0.12177697	0.05513569	0.62444716
0.11532123	0.5624432	0.63352664
0.63059102	0.32105879	0.63388989
0.62739058	0.81816553	0.64945616
0.64553866	0.06392751	0.12341205
0.63401489	0.56808585	0.12699995
0.12518175	0.31534227	0.12781513
0.1333172	0.82591864	0.1265567
0.12823283	0.05285356	0.62112137
0.11556611	0.56312847	0.62611467
0.6340873	0.31767408	0.63137207
0.63195705	0.81746183	0.65449973
0.64793667	0.06650287	0.12011751
0.63465618	0.56944307	0.1266957
0.12714797	0.31531818	0.12799051
0.1198924	0.82244408	0.12728032
0.1294188	0.05587558	0.61862331
0.11959669	0.56347443	0.63090157
0.63172918	0.30792568	0.61938046
0.62578179	0.81301372	0.65414659
0.64392835	0.06517275	0.11028851
0.63575487	0.56814478	0.12268546
0.12016042	0.31913152	0.12022156
0.11404378	0.81838003	0.13166556
0.12473676	0.0577354	0.62204524
0.12197214	0.56275691	0.6367171
0.63260864	0.30199959	0.60966407
0.61807529	0.81177598	0.64835985
0.63793795	0.06208418	0.10496345
0.63331101	0.56857104	0.11945345
0.11866279	0.32241675	0.10957017
0.11784187	0.81935374	0.13647777
0.1203924	0.0558464	0.62152336
0.11968692	0.5624032	0.63537576
0.63623618	0.30424033	0.61219788
0.61817482	0.81262507	0.640203
0.64046426	0.06009708	0.10660875
0.62490657	0.57307419	0.11967254
0.12522716	0.3231176	0.10609457
0.11660006	0.82186764	0.14337365
0.12367208	0.05435722	0.61669871
0.11414358	0.56271834	0.62943734
0.63661075	0.30835252	0.62095742
0.62045976	0.81371428	0.64086659
0.64985712	0.06225269	0.10597355
0.62801488	0.57441932	0.11997389
0.13400671	0.31739937	0.10834359
0.10897728	0.82217249	0.14408539
0.13554564	0.05638526	0.61784529
0.11150719	0.56270581	0.62595518
0.63878005	0.30643328	0.62035732
0.61996513	0.81231638	0.64569879
0.6535878	0.06329759	0.09631194
0.63241411	0.56994957	0.11964267
0.1377767	0.31208985	0.1136102
0.09894818	0.81823319	0.14078086
0.14155016	0.0600688	0.62183374
0.11330932	0.56055778	0.63105252
0.63753128	0.30124286	0.61071359
0.6116338	0.80944093	0.64375087
0.65243205	0.06077712	0.09036687
0.63005737	0.56590889	0.11714581
0.13738209	0.3127843	0.11765593
0.10073676	0.8144035	0.14145384
0.13657654	0.05777938	0.62699125
0.11411362	0.55774584	0.64181725
0.62953237	0.29913478	0.60305641
0.60365547	0.80934839	0.63641819
0.6493615	0.05810231	0.09555706
0.62693619	0.56690396	0.11294403
0.14441411	0.31352886	0.11653968
0.11055384	0.8186673	0.14429611
0.13437938	0.05206297	0.62775591
0.11201516	0.55698524	0.64791408
0.62538594	0.3030793	0.60054315
0.60536311	0.81080233	0.63238948
0.64960879	0.05842542	0.10191645
0.62283655	0.57072382	0.1133261
0.15337515	0.31244125	0.11558494
0.10851435	0.82402671	0.14578504
0.14185735	0.05050886	0.61936842
0.11515901	0.55879657	0.64543754
0.62481325	0.3075519	0.60662255
0.61276288	0.81156689	0.6393049
0.65989721	0.06227028	0.09912089
0.62581614	0.57172763	0.12038337
0.15672066	0.31031834	0.11672911
0.09955321	0.82518552	0.14568273
0.14870294	0.05348344	0.61324036
0.12339332	0.56122417	0.64070505
0.62656255	0.30559397	0.60601759
0.61616199	0.81011874	0.64470925
0.66240307	0.06337542	0.08830464
0.6294498	0.56587944	0.12549812
0.15063088	0.30881493	0.11745121
0.09715688	0.82221778	0.14931706
0.1515465	0.05466782	0.61069449
0.12878203	0.5591584	0.63900621
0.63367286	0.3019271	0.59518361
0.60583582	0.80789493	0.63973988
0.65340001	0.05841107	0.08032921
0.62593724	0.55922601	0.12545934
0.13992209	0.31248837	0.11725318
0.10516075	0.81852349	0.15463896
0.1438945	0.05105881	0.61441836
0.12674229	0.55485493	0.64021067
0.64132998	0.30370131	0.59618278
0.58866755	0.80847521	0.62670855
0.64831905	0.05405566	0.08598587
0.62505475	0.55972079	0.12112443
0.14522265	0.31656015	0.11417519
0.1166584	0.8210622	0.15313271
0.13210741	0.04572294	0.6141056
0.12396981	0.55507754	0.64529185
0.64345431	0.30902332	0.60810597
0.58491518	0.81069895	0.61834518
0.650965	0.05645493	0.09440859
0.62777443	0.56517229	0.122403
0.1586532	0.31576827	0.1123081
0.11564933	0.8234135	0.15009737
0.13174936	0.04819254	0.60101858
0.12247839	0.55833681	0.64543127
0.64518857	0.31361647	0.61815245
0.59767146	0.81242843	0.62418706
0.65904799	0.06129591	0.09423561
0.63531418	0.57117894	0.13201311
0.16354206	0.31223144	0.11655761
0.10911983	0.81884404	0.14751431
0.13768541	0.05396461	0.60568356
0.12340952	0.5593072	0.64029841
0.65897324	0.3141474	0.6132294
0.61414976	0.81232471	0.63926335
0.65781374	0.06017562	0.08769294
0.64647443	0.57149959	0.13393266
0.16110532	0.30754862	0.11648634
0.11025295	0.81501204	0.14651504
0.14623355	0.05321901	0.61055425
0.12447787	0.55644808	0.64905321
0.66976408	0.30961447	0.60042907
0.61697144	0.81381356	0.6479958
0.65288322	0.05496664	0.08458152
0.64633953	0.56598155	0.129205
0.14819665	0.30912183	0.11228225
0.11435755	0.8149612	0.14754978
0.14755959	0.04724313	0.59998853
0.12266354	0.55244611	0.66184677
0.67134846	0.30805951	0.60611787
0.60791521	0.81934492	0.64049739
0.6539544	0.05502297	0.09073989
0.64869196	0.56146878	0.12771522
0.14243668	0.31612932	0.11458793
0.11987719	0.82259081	0.14537394
0.14677574	0.04846319	0.59467969
0.123677	0.55270783	0.66016859
0.66857149	0.31022627	0.6199014
0.60524026	0.8232152	0.62976195
0.65610178	0.06029299	0.10381107
0.65464619	0.56324154	0.13445036
0.15876891	0.32195153	0.1129764
0.12474232	0.829165	0.14486274
0.15724079	0.05715182	0.60096963
0.12497276	0.55730956	0.65744653
0.66816192	0.31278585	0.62609
0.61743292	0.82108127	0.62901307
0.65746435	0.06394123	0.10752513
0.65720998	0.5705289	0.14782474
0.164341	0.3225469	0.10687608
0.13140402	0.82710018	0.152703
0.16879575	0.06395846	0.6101514
0.12195526	0.56220724	0.66083102
0.67117663	0.31353575	0.62118344
0.63097686	0.81479432	0.63760684
0.65417688	0.06343201	0.09997064
0.66560178	0.57625329	0.15892003
0.15494576	0.31258271	0.09812172
0.14532943	0.82190711	0.15769777
0.17086093	0.05982117	0.61547265
0.12123199	0.5657089	0.65967268
0.67138911	0.3114589	0.61177632
0.63076482	0.81415755	0.6397559
0.65157643	0.06217593	0.09291779
0.6617204	0.57177239	0.16502822
0.14891697	0.30826513	0.09626951
0.15214975	0.82121224	0.14854963
0.16365995	0.05199558	0.60882573
0.12422471	0.56669064	0.65058601
0.66427924	0.30921615	0.61323567
0.62416169	0.81848305	0.63118361
0.6599208	0.06435712	0.09796415
0.65567233	0.56846827	0.16722395
0.15270155	0.31825287	0.10797406
0.14095405	0.82385302	0.13067658
0.15194437	0.05301984	0.59837125
0.12599922	0.56654201	0.64338272
0.6492128	0.30887181	0.63566476
0.62477264	0.81725625	0.62605038
0.67007831	0.06931879	0.10731786
0.66610316	0.57323118	0.16788491
0.16133183	0.32459345	0.1203917
0.13316958	0.82369054	0.12859943
0.15531631	0.06260737	0.59576595
0.12872572	0.56888133	0.64224234
0.64719827	0.31039541	0.65245146
0.63364474	0.81225212	0.63362551
0.66778409	0.07221197	0.10462097
0.66543863	0.57781969	0.16743137
0.16239598	0.31639704	0.12014635
0.13563407	0.82062421	0.13902104
0.16757962	0.07102925	0.60517288
0.13702632	0.57048618	0.64253007
0.66092021	0.31363155	0.65635289
0.64523885	0.80925563	0.64451277
0.65758292	0.06955685	0.09931607
0.6526648	0.5739899	0.16350118
0.14990524	0.30695241	0.11510381
0.14060279	0.82028796	0.14028931
0.15879048	0.06876648	0.62070772
0.14467019	0.57138518	0.643777
0.66056855	0.31521897	0.65129256
0.64978362	0.81398967	0.64630559
0.65155301	0.06731395	0.1086022
0.63670608	0.56910916	0.15431138
0.14227448	0.30754735	0.1169344
0.14075629	0.82360882	0.13102094
0.14084502	0.06056677	0.62473824
0.14750229	0.57273241	0.64137554
0.65020115	0.31236277	0.64492817
0.64683044	0.82196258	0.63665308
0.65620803	0.06792253	0.12455671
0.62833164	0.57287885	0.14198649
0.14782456	0.3155472	0.13311113
0.13502819	0.82705581	0.11863834
0.13551652	0.05962026	0.62216956
0.14318472	0.57091683	0.63654167
0.6417928	0.30891172	0.64753733
0.64025315	0.8241142	0.63125533
0.66295429	0.07025611	0.13185709
0.63880903	0.57775001	0.13324097
0.15692252	0.3218373	0.14663284
0.13319884	0.82621478	0.11871697
0.1389715	0.0660545	0.62343346
0.13928937	0.57237699	0.63342695
0.6391666	0.31144464	0.65565412
0.63898537	0.81782752	0.63245468
0.66253411	0.07196499	0.12536517
0.64712237	0.57566804	0.1343514
0.15547813	0.32214639	0.13974631
0.13594295	0.82089047	0.12750278
0.1420395	0.07093715	0.63011745
0.14389186	0.57507731	0.63240495
0.64029538	0.31833881	0.65771459
0.64037067	0.81284364	0.63460018
0.65480535	0.06948831	0.11962891
0.64175571	0.56970427	0.13770889
0.13818309	0.31640911	0.12827174
0.13755762	0.81805238	0.12934138
0.13085713	0.0699108	0.63724052
0.14877878	0.57161635	0.63831854
0.63578372	0.31888876	0.64992745
0.63768972	0.8171513	0.63492158
0.64939496	0.06494946	0.12683704
0.63833316	0.56674674	0.13641833
0.12999782	0.31165871	0.12824556
0.13396943	0.8205987	0.12287379
0.11952039	0.06254492	0.63799457
0.14374229	0.56889845	0.64458131
0.6294036	0.31547375	0.64360167
0.63214877	0.82493598	0.63245989
0.65147456	0.06258322	0.14107522
0.64089863	0.57025019	0.13061268
0.13961305	0.31426971	0.14081799
0.12551805	0.82287436	0.11614178
0.11734721	0.05964087	0.63410774
0.13562534	0.56863253	0.64153952
0.62908431	0.31623772	0.64710656
0.63099743	0.82752693	0.63185483
0.65063555	0.0624574	0.14795672
0.64885545	0.57524231	0.13021546
0.14829576	0.31740247	0.14846507
0.12199414	0.82323784	0.11997173
0.12208681	0.06439805	0.63777705
0.13194026	0.56804105	0.63359364
0.63593309	0.32174801	0.65628607
0.63492038	0.82587222	0.63481308
0.64297001	0.06358339	0.14411237
0.65335384	0.57324006	0.13453443
0.14847147	0.31741435	0.1410375
0.12613604	0.82138552	0.12783662
0.12840925	0.0680476	0.64948338
0.1322025	0.5691557	0.62949778
0.6421143	0.32721706	0.65641638
0.63982421	0.82533925	0.63637967
0.63478852	0.06189994	0.14136851
0.64855123	0.56628238	0.13021017
0.13986083	0.31613653	0.13297472
0.1304433	0.82089951	0.12373293
0.12750093	0.06540549	0.65270223
0.13398843	0.56885776	0.63854144
0.63655376	0.32667523	0.64525068
0.64562581	0.82828575	0.63492548
0.63176348	0.05969475	0.14852752
0.63894284	0.56442537	0.12684709
0.12835054	0.31427348	0.13553957
0.12980794	0.82332908	0.11421433
0.11775148	0.06141383	0.64610239
0.13268271	0.56806507	0.64732441
0.62488264	0.32014342	0.63427042
0.64709426	0.8312546	0.63075336
0.63169676	0.06051968	0.152993
0.63119714	0.5684384	0.12689006
0.12821634	0.31663995	0.14241683
0.12418545	0.823182	0.11161543
0.11140738	0.06165739	0.64491492
0.12774549	0.56939336	0.63747863
0.62226374	0.31710901	0.63495985
0.63979438	0.83144769	0.62913316
0.62598507	0.05900163	0.14802665
0.63456461	0.57351802	0.12823072
0.13497867	0.32053011	0.14065979
0.12201964	0.82127331	0.11624303
0.11133313	0.06610243	0.64985956
0.12856301	0.56981368	0.63015845
0.62773564	0.32071836	0.64387271
0.6310197	0.82937415	0.63296197
0.61695628	0.05771288	0.13991881
0.64384798	0.57034522	0.12973206
0.13166391	0.32027142	0.12910457
0.12454308	0.81946706	0.12342989
0.11958478	0.06629999	0.65121594
0.13324342	0.56986745	0.63465313
0.63405719	0.3260032	0.64194235
0.62647805	0.82830367	0.63416436
0.61270481	0.06047657	0.13723851
0.64870908	0.5607183	0.12526466
0.11848135	0.31595847	0.12734078
0.12568835	0.81901486	0.1199089
0.12619364	0.06251243	0.64655867
0.13207225	0.5697092	0.63578749
0.63324161	0.32501983	0.63044242
0.62916187	0.82916945	0.63093637
0.61545287	0.06174421	0.14614821
0.64332838	0.55759635	0.12111199
0.10839289	0.31261225	0.13834627
0.12594083	0.82294488	0.10716194
0.12425808	0.06043812	0.64026742
0.12290678	0.57137406	0.63019573
0.62235247	0.31795193	0.62515779
0.63711084	0.82876494	0.62845976
0.61948191	0.06033087	0.15576077
0.62964551	0.56246645	0.12125505
0.11236465	0.31481662	0.14602471
0.12503869	0.82490802	0.10132659
0.12344827	0.06163891	0.64235161
0.11180118	0.57657459	0.61894525
0.61976349	0.31342305	0.63093594
0.63742516	0.82804661	0.62702834
0.60912841	0.05721687	0.15407954
0.63048535	0.56919342	0.1222241
0.12015666	0.31642408	0.14431791
0.12638496	0.82352044	0.10563482
0.12561453	0.06630774	0.65034875
0.11322089	0.57743612	0.61911123
0.629647	0.31702823	0.63855933
0.63105678	0.82821403	0.62688395
0.59884473	0.0557381	0.14871282
0.6375515	0.56745243	0.12319103
0.11715647	0.31467728	0.13549149
0.13349557	0.82145761	0.11082403
0.12878235	0.06935661	0.65244993
0.12572835	0.5758771	0.63076161
0.63941632	0.32234739	0.63366082
0.62790317	0.82588465	0.62200142
0.6060236	0.05833003	0.1501082
0.62294339	0.5583248	0.11775503
0.09693001	0.31343045	0.12971462
0.13268559	0.81957626	0.10751348
0.12605644	0.068927	0.63891979
0.13152183	0.57653281	0.63657738
0.63052978	0.31856106	0.62451502
0.63380165	0.81956085	0.6145404
0.61519039	0.06536415	0.15146699
0.60289659	0.56223869	0.10784248
0.07457174	0.31279414	0.12951108
0.12754088	0.82173792	0.096784
0.1171031	0.0701794	0.62796776
0.12708645	0.57726094	0.62846335
0.61403117	0.30770413	0.62414972
0.64379877	0.81189761	0.61444277
0.60587424	0.07026946	0.14002425
0.59382707	0.57391243	0.10604682
0.07226937	0.31567932	0.12324754
0.1272619	0.82529659	0.09611569
0.1179252	0.07239441	0.63800711
0.1139029	0.58112877	0.60906902
0.61155625	0.30484383	0.63399461
0.64053151	0.80832816	0.61829553
0.58268563	0.06588993	0.12662569
0.59986073	0.57627091	0.10665902
0.08594579	0.31981457	0.1108169
0.12839631	0.825477	0.10856378
0.12120304	0.07619688	0.64870167
0.10254712	0.58217387	0.58975551
0.62531977	0.31344595	0.6509276
0.63053382	0.81423988	0.61763827
0.58008954	0.06049388	0.13009828
0.60791093	0.56652304	0.10582908
0.09966284	0.31787162	0.10316941
0.12905021	0.82237003	0.12242003
0.12297558	0.080904	0.64188935
0.10571234	0.57606773	0.58864879
0.64184674	0.31742019	0.66284208
0.6380669	0.82309016	0.61307632
0.59722899	0.06077037	0.13223277
0.6043925	0.55777779	0.09899394
0.09830761	0.31284059	0.11067259
0.1217161	0.81802474	0.12754245
0.12303233	0.08043898	0.63486401
0.10827118	0.57423569	0.59883657
0.63961603	0.31006398	0.65769632
0.65024489	0.82587938	0.61097263
0.61774308	0.06173408	0.12617544
0.59600002	0.56386301	0.08927261
0.08408107	0.31315825	0.12124607
0.10733781	0.81889329	0.12642762
0.11195381	0.07621804	0.63881181
0.10229332	0.57616752	0.61000957
0.61877834	0.30571814	0.63658788
0.64992928	0.82037495	0.61732214
0.62358657	0.06230422	0.11789947
0.5869634	0.57304217	0.09298881
0.0720545	0.31960685	0.1167046
0.10169066	0.82586574	0.1286244
0.10089144	0.07228251	0.65342457
0.10429586	0.57971992	0.60846119
0.60807231	0.31262425	0.61292399
0.64070398	0.81344569	0.62652296
0.60331888	0.06304943	0.11293448
0.58049969	0.56986192	0.10050975
0.07415741	0.32279654	0.10483887
0.10637209	0.82890632	0.14035647
0.0999127	0.07086205	0.66246821
0.1115886	0.58274059	0.59760825
0.62016913	0.32395655	0.60930732
0.63135417	0.81956353	0.63204064
0.57917165	0.06095806	0.12087602
0.58306549	0.56369475	0.10247791
0.0842067	0.31929933	0.09903797
0.12065785	0.82816522	0.1514164
0.10742337	0.07492962	0.64799054
0.12349513	0.57721667	0.59703514
0.62814428	0.32969008	0.61763678
0.63585048	0.82764748	0.62883279
0.56928111	0.0619862	0.12963483
0.59111887	0.56567255	0.1034132
0.08547831	0.31557397	0.09750692
0.13384715	0.82384505	0.15543867
0.11646458	0.07561092	0.63604745
0.12598401	0.57308095	0.60997254
0.61544116	0.32603749	0.62456395
0.64497069	0.82880329	0.62429026
0.5854486	0.06555176	0.11801667
0.59582835	0.57193115	0.10323186
0.07689736	0.31631828	0.10032481
0.13312538	0.82076893	0.15315455
0.11723593	0.06910305	0.64490517
0.12363479	0.57395783	0.61474248
0.59575058	0.319486	0.61656773
0.64315129	0.8223076	0.62569333
0.60601456	0.06480546	0.10628812
0.59595636	0.57710901	0.1106257
0.07092091	0.31968961	0.09650886
0.12583515	0.82172385	0.14529117
0.1061535	0.06533195	0.65016356
0.12290302	0.57555191	0.60864288
0.59278321	0.31519409	0.60511238
0.62922856	0.82223241	0.63363673
0.61232408	0.06251226	0.10693599
0.5971544	0.57211098	0.11316406
0.07955642	0.32077499	0.09121291
0.11581046	0.8212242	0.14170382
0.09343444	0.06522208	0.6386224
0.11809183	0.57393012	0.60664582
0.60928718	0.31661272	0.60249334
0.620213	0.83083992	0.64153476
0.60169665	0.06118589	0.11488458
0.60853495	0.56356407	0.10903691
0.08753356	0.31617549	0.09872376
0.11471945	0.82073169	0.14614188
0.08595303	0.06462997	0.61777601
0.11552454	0.56867078	0.62239889
0.61702068	0.32347834	0.60826121
0.62875737	0.83592395	0.64200613
0.59166279	0.0615504	0.12629817
0.62167038	0.56261242	0.10860188
0.0853471	0.31281645	0.10965252
0.12552714	0.82073454	0.14716808
0.09428561	0.06088053	0.61018463
0.11794029	0.56472484	0.63894074
0.6109864	0.32993625	0.61138967
0.64236773	0.83139406	0.63861018
0.60243707	0.06462149	0.12719429
0.61339506	0.56946014	0.11578742
0.08051581	0.31822067	0.10691448
0.13224077	0.82064931	0.14202212
0.11140863	0.0561137	0.62010656
0.11793537	0.56559655	0.64225066
0.59950198	0.33060693	0.60215122
0.64512102	0.82708097	0.64091283
0.62022048	0.06654266	0.11932319
0.59954487	0.57602315	0.12562689
0.07856404	0.32199953	0.09906352
0.12298655	0.82426174	0.13990157
0.1201616	0.05600756	0.62995743
0.1153932	0.56704028	0.63780143
0.59698229	0.32542961	0.5893124
0.63617905	0.82847882	0.64670294
0.61769771	0.06588821	0.11264006
0.59691219	0.57460107	0.12652327
0.08345458	0.31857565	0.09804942
0.10817664	0.82719267	0.13924912
0.11581576	0.05847065	0.6258425
0.11118092	0.56550432	0.63391046
0.60324622	0.32049064	0.58863371
0.62776844	0.83263909	0.64911071
0.60524877	0.06437176	0.11270575
0.60284016	0.56698235	0.12242699
0.09199737	0.31244883	0.10935579
0.10704654	0.82558391	0.14235364
0.10524708	0.05981141	0.61516041
0.11130736	0.56303336	0.64127447
0.60427102	0.31857852	0.59773813
0.62775393	0.82998645	0.64861152
0.60166093	0.06295819	0.12081612
0.61023282	0.5646825	0.1232299
0.09558205	0.31070893	0.1212912
0.12381668	0.82105619	0.14576661
0.11124596	0.05893329	0.6102582
0.11488032	0.5629223	0.65057069
0.59876045	0.31688615	0.60503998
0.63741744	0.82244987	0.64923957
0.61633847	0.06470579	0.11978989
0.60821843	0.5711752	0.12814438
0.09419866	0.3156947	0.12217374
0.13273433	0.81606955	0.14248544
0.11854347	0.05757427	0.61776591
0.11318688	0.56627429	0.64484609
0.59702517	0.31422169	0.606753
0.639704	0.8177324	0.64576299
0.62753637	0.06754481	0.10555371
0.60711188	0.5784308	0.12765049
0.09650612	0.31783203	0.10913339
0.12437643	0.81719587	0.13792684
0.1126387	0.05845728	0.62442777
0.10415461	0.56947417	0.63686868
0.60425101	0.31179954	0.60685812
0.63263712	0.81922631	0.64114532
0.62071544	0.06655748	0.09828354
0.61550212	0.57722508	0.11842531
0.10168862	0.31461629	0.10139573
0.11449312	0.82235855	0.13852127
0.10616132	0.0610978	0.62282029
0.09708204	0.56724197	0.63677015
0.61400869	0.31137275	0.61148598
0.63026771	0.82284349	0.64232211
0.61106675	0.06560761	0.1094449
0.62441558	0.56882084	0.11161308
0.1061212	0.31033997	0.10758463
0.11742101	0.82329776	0.14331154
0.10469719	0.06202558	0.61939246
0.10617502	0.56368019	0.64009274
0.61915313	0.31282447	0.61894531
0.63701346	0.82324455	0.64107223
0.61231726	0.06470515	0.12859194
0.62747026	0.56597651	0.11927648
0.11154476	0.30876742	0.11962086
0.12534544	0.82085042	0.14452502
0.11635192	0.06107805	0.62032254
0.11868237	0.56396068	0.64260828
0.61618933	0.31404739	0.62503386
0.64527563	0.81721003	0.63864178
0.62407327	0.06346638	0.12903966
0.62323887	0.57127116	0.12877229
0.11945225	0.31209951	0.12349246
0.12508325	0.81707802	0.13829284
0.12637913	0.06108154	0.62727272
0.11495555	0.56834156	0.6370613
0.61045272	0.31486012	0.62749747
0.64239814	0.81263923	0.63680204
0.63030514	0.06453918	0.10766962
0.62121908	0.57485446	0.12930812
0.12834907	0.31516974	0.11957656
0.11698951	0.81863796	0.13481539
0.12137378	0.06317885	0.62991016
0.11065232	0.5710492	0.62893197
0.61371752	0.31350681	0.62754855
0.62891986	0.8125883	0.63192145
0.61900815	0.06522149	0.09685869
0.62848619	0.57268862	0.11907013
0.1330453	0.31368298	0.12062876
0.11480894	0.8238615	0.1347014
0.11359273	0.06514219	0.62311191
0.11841919	0.56720395	0.62723654
0.62393561	0.30877577	0.62845314
0.61756094	0.81633413	0.62783361
0.60999742	0.06401276	0.10884912
0.6367606	0.56680491	0.11218798
0.13334894	0.31381809	0.12994363
0.13060142	0.81895465	0.13518625
0.11255776	0.06446358	0.61929384
0.13336629	0.56450912	0.62907211
0.63139627	0.30825512	0.63354263
0.61559492	0.81742767	0.62637497
0.62469663	0.06287165	0.12150456
0.64247163	0.56495297	0.11982445
0.13380918	0.31606643	0.13779312
0.14791021	0.81285444	0.13539192
0.11944333	0.05953963	0.62468402
0.1400009	0.56769413	0.63064848
0.63588526	0.31153069	0.63779399
0.62539769	0.81287363	0.62672524
0.65105466	0.0616999	0.11963212
0.64031	0.57057162	0.13110075
0.13828332	0.31955756	0.13964015
0.14589773	0.81454687	0.13264258
0.12547896	0.05546657	0.63314517
0.12933939	0.5719118	0.62991396
0.63981973	0.31223169	0.64154667
0.62966476	0.81226897	0.63275229
0.66271642	0.06037571	0.10688384
0.6423907	0.57133474	0.13429815
0.14785547	0.32185873	0.13367097
0.13160968	0.82109445	0.13011732
0.12594834	0.05945989	0.63423356
0.11917406	0.57153868	0.62806672
0.64643066	0.31392351	0.64420022
0.62133831	0.81883674	0.64013075
0.65139812	0.05726373	0.10894323
0.66212095	0.56205316	0.12560134
0.15182098	0.31868731	0.13322742
0.12412097	0.828089	0.12839144
0.13046239	0.06196742	0.62946578
0.12218295	0.5637693	0.62697093
0.65495969	0.3141307	0.64401938
0.61924699	0.82256463	0.64213695
0.63842602	0.05525961	0.13310677
0.67148476	0.55336359	0.12539008
0.14873814	0.31663401	0.14154409
0.13027674	0.82515082	0.12538131
0.14017495	0.06111813	0.63630975
0.13657645	0.55727094	0.62719927
0.66250738	0.3129704	0.64640408
0.62432404	0.82009811	0.63423388
0.64722778	0.05535127	0.15138075
0.6630369	0.55548567	0.14275157
0.15458373	0.31940519	0.1455564
0.1411112	0.81840804	0.12227587
0.1509902	0.06288423	0.64822272
0.14975472	0.56271867	0.63204502
0.66199524	0.31511544	0.64922349
0.62921431	0.81779758	0.62057859
0.67005514	0.05528181	0.1442686
0.65456424	0.56456993	0.1541148
0.1673223	0.32188115	0.14239888
0.14278395	0.82156203	0.1147024
0.15922535	0.06464496	0.64818622
0.14791646	0.57487667	0.63749531
0.65993766	0.31574828	0.64890731
0.62471329	0.82122589	0.61113724
0.6807445	0.05642775	0.12355134
0.65591909	0.5692837	0.1508098
0.17719676	0.32303233	0.14152433
0.13367059	0.82985681	0.10389064
0.15756135	0.06621553	0.63952792
0.14386255	0.57468635	0.64216479
0.67040894	0.31322487	0.64974655
0.61150745	0.82541753	0.62198441
0.6714507	0.05668149	0.1191326
0.66875427	0.56552326	0.13800322
0.17692608	0.32042931	0.1454213
0.12600036	0.83296483	0.09648319
0.15529707	0.0667192	0.63254917
0.15073162	0.56264046	0.64567133
0.68472638	0.30842125	0.65585303
0.60704157	0.82415798	0.63347782
0.66325493	0.05600735	0.14405031
0.67563666	0.56111673	0.13244236
0.16666072	0.31773968	0.15103482
0.12888502	0.82831785	0.09531132
0.1633016	0.06559938	0.63501099
0.16143608	0.56058246	0.64390383
0.69310614	0.30303022	0.66628622
0.61718592	0.81900124	0.62863382
0.67683009	0.05821018	0.16164203
0.67281775	0.56089599	0.14272558
0.17061262	0.31754773	0.15264357
0.13665578	0.82169151	0.10300074
0.17242342	0.06567604	0.64800671
0.1688232	0.57201024	0.64321433
0.69601689	0.30272193	0.67533643
0.63123901	0.81926016	0.62042016
0.69765293	0.05758148	0.15307269
0.67425641	0.56516594	0.15456469
0.1855135	0.3165684	0.15223373
0.13318723	0.82275429	0.10144445
0.18140046	0.06656417	0.65288702
0.16138932	0.57792586	0.64313124
0.69757051	0.30731582	0.68048744
0.63897667	0.8245332	0.62071924
0.70005394	0.0548562	0.13577333
0.67971082	0.56962074	0.15735248
0.19674876	0.31454745	0.15447297
0.12012687	0.83030697	0.08840848
0.18580108	0.06864398	0.64458122
0.14465251	0.57144285	0.64362365
0.69544211	0.31230753	0.67354817
0.63469853	0.82738013	0.63122111
0.68619265	0.05617315	0.13375268
0.67608957	0.57216681	0.14784785
0.20175191	0.31229654	0.15514974
0.12025789	0.83536915	0.08180754
0.1854184	0.07004763	0.63594408
0.13811731	0.56287059	0.64485901
0.68725645	0.31349879	0.65869471
0.62752766	0.82428669	0.62747961
0.69030928	0.06083572	0.15350138
0.65710921	0.57369155	0.14330802
0.20011037	0.31293633	0.15099801
0.13097392	0.83240851	0.08786083
0.18913899	0.06717974	0.63890556
0.14870275	0.56069471	0.64606999
0.68240824	0.30936248	0.65494585
0.62640801	0.8183858	0.60500621
0.71121276	0.06558897	0.17137698
0.64222217	0.5729134	0.15549789
0.1998726	0.31694428	0.14559469
0.14296339	0.82393405	0.09831534
0.18440943	0.06107665	0.65021491
0.16827468	0.56615436	0.64899107
0.68450748	0.30983005	0.66175156
0.63732274	0.81506557	0.60281602
0.71986852	0.06820129	0.16985316
0.64961014	0.57226175	0.1544682
0.20463153	0.31802918	0.14790516
0.14581087	0.81996354	0.10186825
0.17202835	0.05801887	0.65720336
0.17865582	0.57525859	0.64970934
0.68939009	0.31563262	0.67070323
0.64636482	0.81701666	0.61882765
0.70457323	0.06789192	0.15750322
0.6646831	0.57450256	0.14000273
0.20863029	0.31634481	0.15633196
0.13510539	0.82425053	0.09631525
0.1713619	0.05806059	0.65330007
0.166899	0.58249697	0.63935367
0.6921379	0.31871097	0.6742144
0.64440187	0.81877433	0.631151
0.69350571	0.0671175	0.14855151
0.66919593	0.57712764	0.13158276
0.2057063	0.31607342	0.15295217
0.12962307	0.82663364	0.09564977
0.17929992	0.0616239	0.64819845
0.15646811	0.58104931	0.6335935
0.6883663	0.3184731	0.66757675
0.63261532	0.81634441	0.63023811
0.69745515	0.0674964	0.15861146
0.66708035	0.57518961	0.1302494
0.19318164	0.31597949	0.14187852
0.13559761	0.82086958	0.10621218
0.18244067	0.06310619	0.64667928
0.15938835	0.57297298	0.63875584
0.67983042	0.31821232	0.66148609
0.62092486	0.81333485	0.62264542
0.70118471	0.06930681	0.16379843
0.66998666	0.56960208	0.13746401
0.18393409	0.31608173	0.14168807
0.13256846	0.81512119	0.11278684
0.17425462	0.06303088	0.64648195
0.16643651	0.56535504	0.64160269
0.68203796	0.32059502	0.66336659
0.62433268	0.81387014	0.62038642
0.69417331	0.07043443	0.15235899
0.67881198	0.56840979	0.14242252
0.18499883	0.31754154	0.14848049
0.1251754	0.81795178	0.1086903
0.16388164	0.06619871	0.6498062
0.16638731	0.56536281	0.63885176
0.68899026	0.32489563	0.66851437
0.63612332	0.81919513	0.62922088
0.67993139	0.06921897	0.14577999
0.6844178	0.57232706	0.14162489
0.19088522	0.31765412	0.15027852
0.12468705	0.82465045	0.10176359
0.16053592	0.06703371	0.64953446
0.14748324	0.57262364	0.63385428
0.6872226	0.3264498	0.66919481
0.63257534	0.82521804	0.63647334
0.67208727	0.06722765	0.14906034
0.67791119	0.57403827	0.14299028
0.18930698	0.31891304	0.14680439
0.1385869	0.8276357	0.10137966
0.16284138	0.06542864	0.6453201
0.13766558	0.57470931	0.63194577
0.67486384	0.32556355	0.66142944
0.62285577	0.82600926	0.63179832
0.6731922	0.0661173	0.1579365
0.66565948	0.57165917	0.14273893
0.17736201	0.32197785	0.1398094
0.15815285	0.82362796	0.11000057
0.16296459	0.06519261	0.64097732
0.1489268	0.56867119	0.63547921
0.66277199	0.3212436	0.6546481
0.62174958	0.82576907	0.62082069
0.67232497	0.06652609	0.15720553
0.66391525	0.56864635	0.13919215
0.1637986	0.32262325	0.1369063
0.16211266	0.82004611	0.11976901
0.15682865	0.06591315	0.63879088
0.15804957	0.56475695	0.63834178
0.66029317	0.31710006	0.65581786
0.62775831	0.82831958	0.6162627
0.66672463	0.06759106	0.14235145
0.6686181	0.5691133	0.13417819
0.1596824	0.32210269	0.14084238
0.1472112	0.82193232	0.12211375
0.14548212	0.06675213	0.63988679
0.15072678	0.56819561	0.63564985
0.66561414	0.31769971	0.65889542
0.62825052	0.83296239	0.61935211
0.65424573	0.0669255	0.13109439
0.66883203	0.57214447	0.13123268
0.1634791	0.31966553	0.1412381
0.13205915	0.82587856	0.11929103
0.14155671	0.06583284	0.64087738
0.13385439	0.5722706	0.63256992
0.66419304	0.32115662	0.6604936
0.61760804	0.83537077	0.62275591
0.64504873	0.06456603	0.13125756
0.66441995	0.57203391	0.13968698
0.15814669	0.31610968	0.1363246
0.13018082	0.82319043	0.11493107
0.14448303	0.06305007	0.63837077
0.12525341	0.56581709	0.63320533
0.65313143	0.32497224	0.65656018
0.61308563	0.83408117	0.62216035
0.64644983	0.06380912	0.13789215
0.65481023	0.56819846	0.14761655
0.13723755	0.31729501	0.13130088
0.13969848	0.81796196	0.11235625
0.1423057	0.06190365	0.63050663
0.12814191	0.56153758	0.6347243
0.64330142	0.3262017	0.64950968
0.62060682	0.83101558	0.61759043
0.64476443	0.06497254	0.13894004
0.6449932	0.56485526	0.13932712
0.12466155	0.32031668	0.13045185
0.14150428	0.81958613	0.11189591
0.13374102	0.06364711	0.62719421
0.13184358	0.56528936	0.63596445
0.64468519	0.32447412	0.64992612
0.63553585	0.83050831	0.61542405
0.63503095	0.06491763	0.13333834
0.64013585	0.56423169	0.127542
0.12863306	0.3195359	0.13563115
0.13051952	0.82643809	0.11604839
0.12554367	0.06526208	0.63077383
0.13169457	0.57156273	0.63584389
0.64434943	0.32302876	0.6500982
0.64509861	0.8322919	0.62362679
0.62298393	0.06262235	0.13136339
0.63558747	0.56666869	0.12311325
0.13116399	0.31527768	0.13922746
0.12474914	0.82819117	0.12247004
0.12837861	0.064339	0.62741873
0.12629765	0.57400342	0.634858
0.63609907	0.32184392	0.64210926
0.63996818	0.83243297	0.63361171
0.61676649	0.06143169	0.12855182
0.62688809	0.56963658	0.12714951
0.12298185	0.31188573	0.1341548
0.12912134	0.82382889	0.12449879
0.13398452	0.06382851	0.62120207
0.11709735	0.56990017	0.6333226
0.62608667	0.31983619	0.63442206
0.63433279	0.82808497	0.63458319
0.62485219	0.06216848	0.12463958
0.61619325	0.57103207	0.13334303
0.10907479	0.31347233	0.12386519
0.1352172	0.81722595	0.12688139
0.12545191	0.06488108	0.62314923
0.11402454	0.56766173	0.63177288
0.62017366	0.31643781	0.63081107
0.63331342	0.82270283	0.63145024
0.62379326	0.06482382	0.11855218
0.61131255	0.57182528	0.12519311
0.1026297	0.31562801	0.11893944
0.13117109	0.81515783	0.12743618
0.10642116	0.0662096	0.63169659
0.11661777	0.57347532	0.62960038
0.61703737	0.31508827	0.63395771
0.634859	0.82131367	0.62595176
0.60972877	0.06757007	0.10901077
0.61459802	0.57236323	0.1156607
0.10401695	0.31421569	0.12254725
0.1146393	0.81942349	0.1312995
0.09167075	0.06745751	0.64104193
0.1199957	0.58090808	0.62719762
0.6154912	0.31707333	0.63305946
0.63580288	0.8225795	0.62628837
0.60341219	0.06656705	0.10686551
0.61766066	0.57352855	0.11817632
0.0985473	0.31126042	0.12498458
0.1044887	0.82137235	0.14180855
0.09614798	0.06629713	0.64406685
0.11543109	0.58311896	0.62710142
0.61191099	0.31854919	0.62091219
0.63738752	0.82075615	0.63676455
0.60568536	0.06223539	0.11300427
0.61288717	0.57540794	0.12541979
0.08674727	0.31036477	0.11801422
0.11000949	0.81546352	0.14932297
0.10425037	0.06340203	0.63683345
0.10675575	0.57695668	0.62903908
0.60490947	0.31915481	0.60931946
0.64448498	0.81686366	0.64562315
0.60601653	0.06056798	0.1170908
0.59884786	0.57318097	0.12311994
0.07795337	0.31347558	0.10322436
0.11550735	0.8133903	0.14929173
0.09724389	0.06284256	0.62671249
0.10593847	0.56666678	0.63175769
0.59514336	0.3182031	0.60403913
0.64812557	0.81504169	0.64200681
0.59651698	0.06247727	0.11188585
0.5891784	0.56562655	0.10778906
0.07934531	0.31704325	0.09640817
0.11063088	0.81781416	0.14985297
0.0837558	0.06489585	0.62010732
0.10789019	0.56103814	0.62650193
0.58333068	0.31566207	0.60286593
0.64634804	0.81476559	0.63899139
0.58032983	0.06335934	0.10046338
0.59410071	0.56354075	0.09538095
0.08580784	0.31690364	0.09829553
0.10381037	0.82358072	0.15355534
0.07856591	0.06306683	0.62222693
0.10444172	0.56463242	0.62120234
0.57458853	0.31392344	0.59716879
0.64213983	0.81579391	0.64821857
0.56918364	0.05994219	0.0975331
0.5942155	0.56760411	0.09905777
0.07539891	0.31351741	0.10050323
0.10438142	0.82435098	0.15808175
0.08273844	0.05831667	0.63361875
0.09998308	0.57383035	0.62474995
0.57071031	0.31289366	0.58575696
0.63585099	0.81845421	0.65978513
0.5641915	0.05447208	0.10442475
0.58321523	0.56974722	0.1115007
0.05584302	0.31218067	0.09996976
0.11560954	0.8230818	0.15934567
0.08251934	0.0604656	0.64114249
0.09918021	0.57689068	0.62607839
0.56770473	0.31175932	0.5776828
0.63216504	0.81849289	0.65454313
0.56370231	0.05438187	0.10579337
0.57615584	0.56761129	0.12095402
0.04736663	0.31595725	0.0950632
0.12881514	0.82391086	0.15794624
0.06685468	0.06622881	0.63781558
0.10248198	0.56935767	0.61994437
0.56526954	0.30930249	0.57946696
0.63028769	0.81497877	0.64337464
0.56439011	0.06231568	0.10329401
0.57415955	0.56292833	0.11260868
0.04781945	0.31955346	0.08926539
0.12791916	0.82640697	0.15846622
0.05280832	0.06641276	0.62831068
0.10151411	0.55940213	0.61496589
0.56502709	0.30438146	0.59108061
0.62212042	0.81072114	0.64261394
0.56365501	0.07118789	0.09906441
0.57552176	0.56162303	0.09174796
0.0473469	0.31796826	0.09040217
0.12209103	0.82747327	0.16012358
0.05872713	0.06179896	0.62353419
0.09485834	0.55816154	0.61866773
0.56689991	0.30296306	0.6001715
0.61876084	0.80907867	0.65269528
0.56350458	0.06645095	0.10280479
0.57601673	0.56671021	0.0764352
0.04098009	0.31616162	0.09299607
0.12021484	0.82502729	0.16020678
0.07567682	0.0567671	0.62866558
0.08978232	0.56923148	0.62908154
0.56704064	0.30507238	0.59137183
0.62532084	0.8145535	0.66171768
0.55742765	0.05447851	0.11247996
0.56749992	0.56795749	0.08135599
0.03399248	0.31872236	0.09472429
0.11818916	0.82045023	0.15390858
0.09100622	0.05592175	0.62545339
0.09098157	0.57427132	0.63530965
0.56153928	0.30867084	0.57574893
0.63106736	0.81979405	0.66726266
0.55196721	0.05112107	0.11221954
0.55850705	0.56507012	0.10399906
0.04112273	0.32335079	0.10073837
0.11180234	0.82134605	0.14258568
0.09345046	0.06166136	0.61746246
0.09060731	0.56324059	0.6280589
0.559106	0.31173642	0.57743438
0.63295814	0.82090639	0.66972396
0.55605216	0.05981694	0.10246284
0.56628417	0.56367058	0.1153734
0.0588347	0.32553562	0.10636678
0.10456893	0.8267581	0.1390051
0.08761302	0.06440679	0.61836759
0.0898951	0.55472224	0.61095869
0.5675861	0.31073065	0.59012784
0.6299948	0.81958361	0.6654886
0.56305273	0.06352918	0.09277093
0.58138444	0.56556688	0.10396998
0.0641368	0.32055993	0.1103911
0.10591626	0.82888772	0.14017121
0.07642928	0.06194661	0.61708586
0.09369649	0.55887519	0.60430276
0.57667994	0.30988477	0.59911056
0.62876662	0.81579916	0.65613451
0.572202	0.05616466	0.09274062
0.59461769	0.56924927	0.08747051
0.05118243	0.31771496	0.11083096
0.10879787	0.82611186	0.14050853
0.07613265	0.05798407	0.61706752
0.10031437	0.56928737	0.61845756
0.58155233	0.31093075	0.58609923
0.63385415	0.81469307	0.64371244
0.57746907	0.0484733	0.1026716
0.59862566	0.57113502	0.096201
0.04656736	0.32051983	0.10218239
0.10399309	0.82335976	0.13633148
0.08859699	0.05758871	0.61798016
0.10172488	0.57255193	0.63193948
0.58508655	0.31028207	0.56926536
0.63604902	0.81782584	0.63207372
0.57571491	0.05152339	0.10848737
0.59637244	0.56789916	0.11501926
0.05655463	0.31858407	0.09524094
0.0938691	0.82080228	0.1306442
0.10339395	0.06208843	0.61899456
0.09420815	0.56364346	0.63310732
0.58728124	0.30905789	0.57741772
0.62899697	0.81932511	0.63111494
0.58677233	0.06218631	0.10284547
0.59362433	0.56286183	0.10784599
0.06415164	0.31163704	0.09229183
0.09461313	0.82046309	0.12997194
0.1102526	0.06508818	0.61834465
0.08918719	0.5626152	0.61974347
0.59736902	0.30877533	0.59866512
0.62167488	0.81991388	0.63694543
0.60089294	0.06776682	0.09477748
0.60284878	0.5621737	0.08914312
0.06248539	0.30414771	0.0963758
0.10445415	0.82390303	0.13613339
0.10539384	0.06277045	0.61259327
0.09303365	0.57221368	0.61045824
0.60734592	0.31232835	0.6051272
0.62558654	0.81835875	0.64035212
0.60325124	0.06165322	0.09564332
0.62056901	0.5678272	0.09371369
0.06465521	0.30476477	0.10402662
0.10766546	0.82325532	0.14425594
0.10210656	0.05631177	0.6085269
0.10195395	0.57862475	0.62186456
0.60693755	0.31909216	0.59613191
0.63539509	0.8178513	0.63841697
0.60280542	0.05504737	0.11048343
0.62044385	0.57587506	0.11997987
0.07732736	0.31310153	0.10366617
0.10526638	0.81653191	0.14210245
0.11102979	0.05002645	0.60866617
0.10924463	0.57681854	0.63465064
0.60022171	0.32090435	0.58649441
0.6434377	0.82017082	0.6321496
0.60777023	0.05786835	0.11384988
0.60807389	0.57742538	0.13269436
0.09553162	0.31899456	0.09992732
0.10113385	0.81790537	0.1383996
0.11731104	0.05056033	0.61162825
0.11064287	0.56840343	0.63291917
0.59867354	0.31783621	0.59512548
0.64100484	0.8200315	0.63105462
0.62140245	0.06617951	0.10199289
0.60163681	0.57210277	0.12402122
0.10724547	0.31478169	0.10482994
0.10534097	0.82279791	0.14278
0.11193586	0.05478122	0.62116425
0.11013995	0.55765305	0.62715102
0.6092436	0.31406225	0.61214771
0.63112824	0.81970351	0.63236862
0.6390365	0.07174238	0.09894556
0.61076531	0.56594521	0.10845408
0.10539902	0.30581856	0.11127016
0.1226401	0.82186077	0.14934474
0.11063778	0.05323635	0.63241648
0.11446938	0.55596118	0.62756118
0.62728547	0.31474818	0.61801881
0.62123782	0.82117052	0.63605627
0.64581156	0.07078306	0.10386381
0.62249238	0.5670836	0.10699251
0.10182343	0.30204738	0.11481919
0.12951253	0.81855121	0.15263806
0.12455143	0.05288066	0.63966561
0.12351488	0.56184445	0.63686038
0.62986824	0.31862718	0.61359814
0.61773944	0.82292778	0.64167359
0.6413308	0.06754855	0.11426185
0.62613222	0.57591873	0.11996308
0.11085917	0.30720446	0.11457726
0.1242965	0.81706874	0.1447946
0.14058977	0.05703144	0.64168765
0.12688455	0.56868631	0.64202993
0.61554071	0.31908734	0.61392459
0.61783474	0.82523423	0.63975659
0.63705174	0.06717526	0.12111889
0.62860865	0.57920792	0.13326625
0.1270596	0.31485874	0.11662653
0.11918419	0.81848442	0.13558508
0.14602819	0.06082863	0.63577143
0.12112999	0.57118953	0.63722219
0.61145594	0.31594299	0.62293669
0.61798701	0.82630324	0.6374529
0.64148194	0.06974756	0.11563824
0.63314762	0.57211147	0.13777014
0.13793932	0.31463073	0.12581078
0.12187438	0.82289794	0.13848623
0.14100622	0.06371311	0.62620579
0.11482595	0.56899722	0.63290467
0.62607887	0.31380599	0.63098495
0.61323781	0.82554299	0.63676822
0.65118523	0.07087168	0.11423768
0.63716183	0.56891994	0.12845807
0.13911616	0.31059306	0.13100916
0.13468752	0.82585023	0.14493624
0.1359568	0.06175954	0.61932651
0.11563224	0.56489083	0.63566654
0.64324611	0.31392911	0.62994861
0.61122794	0.82406779	0.63176504
0.65725907	0.06820883	0.11943576
0.64001679	0.5707727	0.12181351
0.14492661	0.31208947	0.12930824
0.14224082	0.82419552	0.14324816
0.1366832	0.0578462	0.62071453
0.12512415	0.56321901	0.64416794
0.6460208	0.31779556	0.62701114
0.61531462	0.82261808	0.62731183
0.65624085	0.0642345	0.12664085
0.6377962	0.57314698	0.13143046
0.15666931	0.3186642	0.12942419
0.13534458	0.82162764	0.13260577
0.1417769	0.0606881	0.62822082
0.13429108	0.56489324	0.64358025
0.63940308	0.32214335	0.63022902
0.6222205	0.82299487	0.62837068
0.65211176	0.06422883	0.13175268
0.63734521	0.57202785	0.14765425
0.1636564	0.32362096	0.12803337
0.13109429	0.82242612	0.12690735
0.14518853	0.06652413	0.63068944
0.12896544	0.56675404	0.63209536
0.64641436	0.32147624	0.63847078
0.62482916	0.82569541	0.63202781
0.65821178	0.06669085	0.12858129
0.64105852	0.56773843	0.14809726
0.16248238	0.32410151	0.12752286
0.13328088	0.82562333	0.13199108
0.14210797	0.07013945	0.63058107
0.12369868	0.56856985	0.63172339
0.66153427	0.31682003	0.64880892
0.61872296	0.82572708	0.63551444
0.67320636	0.06793949	0.12918173
0.64598785	0.56644499	0.13298611
0.15690629	0.32201134	0.13035796
0.13972969	0.82581121	0.12955787
0.14199018	0.06820031	0.63283003
0.13242262	0.5684841	0.64032887
0.66910203	0.31355342	0.65483915
0.61789506	0.82361291	0.6332382
0.67066246	0.06633594	0.13502007
0.65256133	0.57105408	0.12754318
0.15861907	0.32125962	0.13082636
0.13647308	0.82299048	0.11763333
0.1469387	0.06528396	0.63700385
0.14712517	0.56992639	0.64576338
0.66430117	0.31446924	0.65379398
0.62934468	0.82123943	0.62854991
0.65892454	0.06329059	0.14096787
0.66065398	0.57673954	0.14342277
0.17451801	0.3220955	0.13275607
0.12379752	0.82145485	0.10850641
0.1532788	0.06782368	0.63964858
0.15584055	0.57402446	0.64247449
0.65661798	0.31860488	0.65250303
0.63811586	0.82060464	0.62764442
0.65482534	0.06285541	0.14674064
0.66415696	0.57821095	0.14849841
0.18098982	0.32139311	0.13492339
0.12652152	0.8230819	0.10520221
0.15526401	0.06961844	0.62964968
0.15376633	0.57523119	0.6387512
0.66781008	0.32125989	0.65321147
0.63805582	0.82528062	0.631316
0.66140087	0.0643235	0.14791649
0.66035144	0.57258011	0.13638855
0.17745138	0.31779962	0.13724738
0.13793166	0.82868606	0.10814287
0.14894142	0.06739966	0.62200039
0.143417	0.57486895	0.64206556
0.68859985	0.31871494	0.65572741
0.63499375	0.82520279	0.63470552
0.66688348	0.06415979	0.14496467
0.65518075	0.56519562	0.12987713
0.17371024	0.31492786	0.14406764
0.14426605	0.83110192	0.11064395
0.14383649	0.06423094	0.6229379
0.14200841	0.57445082	0.64830979
0.69265367	0.31557534	0.66018789
0.64305654	0.8195887	0.62993121
0.65873908	0.06228673	0.14651773
0.66012798	0.56246576	0.1370083
0.17836114	0.3157026	0.14918919
0.14045529	0.82551472	0.10955649
0.14782274	0.06236599	0.62780447
0.14944719	0.57631986	0.64881016
0.67868645	0.31481915	0.66167491
0.65414195	0.8199332	0.62183462
0.65061108	0.06097979	0.14834075
0.66699583	0.56620514	0.14934919
0.18701029	0.32001421	0.15189514
0.12948025	0.82121776	0.10398724
0.14765766	0.06567488	0.63786827
0.15350986	0.58026838	0.64342961
0.66393753	0.31528829	0.66433943
0.65207534	0.82448292	0.62836475
0.65315068	0.06123386	0.15022852
0.66885136	0.57379959	0.15313295
0.18333419	0.32143009	0.15182896
0.13296666	0.82460969	0.09667869
0.14182662	0.06937499	0.64337058
0.1535649	0.58098981	0.63866976
0.66968427	0.31332292	0.67362475
0.64133097	0.82813395	0.64194942
0.66447122	0.06048627	0.1516399
0.67786893	0.57309885	0.14857437
0.17203741	0.31823847	0.15469547
0.1468063	0.82730467	0.09553243
0.14333932	0.06637925	0.64064426
0.15660746	0.58000054	0.63855738
0.68595704	0.30913919	0.67884803
0.63497427	0.82781162	0.63968627
0.67448742	0.05991434	0.14892765
0.67589005	0.56366541	0.14424784
0.1707107	0.31393867	0.1658464
0.15143656	0.82212767	0.09677688
0.15510444	0.06182363	0.63780274
0.16716633	0.57760243	0.63875703
0.68863022	0.30751346	0.67581354
0.63689882	0.82396771	0.62496963
0.66871562	0.06090191	0.1492871
0.66757272	0.56121894	0.14456257
0.17705494	0.31219148	0.17132419
0.14240966	0.81663492	0.09084716
0.16076847	0.06095543	0.63636904
0.17696611	0.57181014	0.63422533
0.67481423	0.31127049	0.67046075
0.64771527	0.82228276	0.61854128
0.65344273	0.06272401	0.14996912
0.67170333	0.56677125	0.14989145
0.1863541	0.31518808	0.16802605
0.12873406	0.81666562	0.08818507
0.15116673	0.06714464	0.64052377
0.16832134	0.56606309	0.62507649
0.65267485	0.31797634	0.67295006
0.65573818	0.82338984	0.63278212
0.64044229	0.06245774	0.14829218
0.67647286	0.56782762	0.15286742
0.18393979	0.31743638	0.16204115
0.13080646	0.82066792	0.08993373
0.13688084	0.06893933	0.64484033
0.14526917	0.5632093	0.62066618
0.64120093	0.32223732	0.68253123
0.65492448	0.82483431	0.6444243
0.64215076	0.05810583	0.15367862
0.67174488	0.5577895	0.15271485
0.16965516	0.31247047	0.16108117
0.14728789	0.8259039	0.09844937
0.13611617	0.06514752	0.64437603
0.12774333	0.55986245	0.61970937
0.64331369	0.32067756	0.68357591
0.64791729	0.82507098	0.62726162
0.65521928	0.05850822	0.15577342
0.6621237	0.54758888	0.15054463
0.16522987	0.31039296	0.16247816
0.15191403	0.82934811	0.10740649
0.14478142	0.06282248	0.64815467
0.12379484	0.55795114	0.6163236
0.65164869	0.31689406	0.67544977
0.63813784	0.82425538	0.6005837
0.66654125	0.06433787	0.14400342
0.66287893	0.55448102	0.14782984
0.15796743	0.31166849	0.15811872
0.1341167	0.82657166	0.09435176
0.15193984	0.0619353	0.65504406
0.12353191	0.56125831	0.62410327
0.65857578	0.31857738	0.67556987
0.63573758	0.82350565	0.61451807
0.66573188	0.06787472	0.13794464
0.67183789	0.56832675	0.15093015
0.14478587	0.31194134	0.14936515
0.11337433	0.82007071	0.09396516
0.14796695	0.06347789	0.66453351
0.13295003	0.56670714	0.62592107
0.65693627	0.32388046	0.67787506
0.63809993	0.82131339	0.6333156
0.65659625	0.06314077	0.140882
0.67131704	0.57448443	0.1494718
0.14209158	0.31189219	0.13615727
0.11808225	0.81581273	0.1157748
0.13782411	0.06760686	0.6753857
0.14449119	0.57028755	0.63064934
0.64388741	0.32442508	0.671812
0.63643498	0.81871714	0.6205523
0.65065712	0.05776439	0.15271396
0.66136021	0.57053368	0.14218539
0.13610407	0.31155758	0.13405098
0.13273948	0.81819909	0.11341403
0.13345883	0.06590892	0.67783093
0.1487707	0.57053738	0.63549581
0.63099743	0.32018081	0.6621744
0.63648505	0.82015894	0.60080422
0.6571049	0.06127403	0.15751372
0.64523835	0.56173352	0.14000796
0.12873594	0.31214691	0.13818687
0.13245032	0.82603698	0.09226169
0.13816635	0.06417207	0.67982555
0.14260133	0.56869853	0.62475762
0.63399052	0.31668498	0.65226496
0.63514405	0.82285386	0.59089263
0.65260563	0.06637067	0.14647212
0.63132974	0.56144945	0.13738704
0.12555187	0.31221787	0.12798948
0.11900821	0.82870474	0.08444045
0.14429086	0.06719898	0.67684878
0.13048559	0.56938923	0.62103978
0.64402333	0.31848599	0.65099567
0.63608706	0.8243633	0.59226148
0.63344684	0.06532027	0.13166613
0.63001331	0.56749386	0.13416747
0.12631528	0.31466179	0.11743588
0.11697687	0.8235662	0.10378739
0.14966981	0.06911877	0.66736415
0.1293842	0.57230719	0.63282092
0.64277479	0.32234827	0.656372
0.64124103	0.82555802	0.60040613
0.62811625	0.06113968	0.12770809
0.63591516	0.57358689	0.12625736
0.13067603	0.31872129	0.12063703
0.12735213	0.81662368	0.12669446
0.14850478	0.06776454	0.66087366
0.1386912	0.57308025	0.64284681
0.62825728	0.32341367	0.65453851
0.64169431	0.82774429	0.60578841
0.63483141	0.05862595	0.13863431
0.64109809	0.57390078	0.12459374
0.12942969	0.31971354	0.13286004
0.13456831	0.81682315	0.13373095
0.14183716	0.06470978	0.65572085
0.14289882	0.5693091	0.64375241
0.62460237	0.32065212	0.64293832
0.64085336	0.82848426	0.60913487
0.63752587	0.06235693	0.15244449
0.63621302	0.57043194	0.12956786
0.12327545	0.31984611	0.1379142
0.13179055	0.82247595	0.12514916
0.13696543	0.06511879	0.65075783
0.13417455	0.56838207	0.63765478
0.63480318	0.31615431	0.62938116
0.63887552	0.82622413	0.61213993
0.63117399	0.06854904	0.15181697
0.6273064	0.56768043	0.12537055
0.11803398	0.31735702	0.13252933
0.12306054	0.82598264	0.10984445
0.1335259	0.06936009	0.64275779
0.12924957	0.57367459	0.6304206
0.64646208	0.31413605	0.62228749
0.6328884	0.82465612	0.61755637
0.61875358	0.06941769	0.13717397
0.62411401	0.57021135	0.11109869
0.11573386	0.31384762	0.12396825
0.12328667	0.82336149	0.10143112
0.13344858	0.07196816	0.63350745
0.13205786	0.57727023	0.62753659
0.64212357	0.31497529	0.62616793
0.62775539	0.82220881	0.62538829
0.62264741	0.06437922	0.13000798
0.6254499	0.57418443	0.10302486
0.11893705	0.31504674	0.12395836
0.13334486	0.81935888	0.10793457
0.12979929	0.07195803	0.63017467
0.1362176	0.57667878	0.6308155
0.62449042	0.31646747	0.62913972
0.63039058	0.82111187	0.63207239
0.6342846	0.06004159	0.13882737
0.6270301	0.5742284	0.11379362
0.12053516	0.31800676	0.12988623
0.13780646	0.81944826	0.11879681
0.12023128	0.06807714	0.63067269
0.13136744	0.57693958	0.63538138
0.61292024	0.31667904	0.62159138
0.63572787	0.82113379	0.63607497
0.63406094	0.06280848	0.14788149
0.61894819	0.57081471	0.13011349
0.115048	0.3198736	0.13116398
0.13153525	0.82307631	0.12144094
0.117567	0.06431389	0.63208417
0.11977175	0.57740871	0.63297831
0.62190218	0.31628788	0.61546418
0.63518634	0.82061848	0.63929797
0.62287904	0.0678149	0.13893392
0.60751004	0.56845569	0.13308611
0.110224	0.3191123	0.12363579
0.12472304	0.82520695	0.11736863
0.11858567	0.0648054	0.63037489
0.12039655	0.57471933	0.62716519
0.63406895	0.31681042	0.62169067
0.62922172	0.82069132	0.64280752
0.61593812	0.06857669	0.12386899
0.60966803	0.57009115	0.11771275
0.10958503	0.3162811	0.1157661
0.12659948	0.82300831	0.11547636
0.1178702	0.06542399	0.6247813
0.12838319	0.57039284	0.62283793
0.63475041	0.31889712	0.62982534
0.62628989	0.82161965	0.64596358
0.61882428	0.0644801	0.12337142
0.61311176	0.57204025	0.10300616
0.11087318	0.31609167	0.12135841
0.12992295	0.82180413	0.13080182
0.11469175	0.06634893	0.62711607
0.12730397	0.56724406	0.62472315
0.61808955	0.32127061	0.62704508
0.62675345	0.82173997	0.64639366
0.62516522	0.05927008	0.13412114
0.61355064	0.56926432	0.10567228
0.11202114	0.31595385	0.1298863
0.12745295	0.8236495	0.15069982
0.10753976	0.06609824	0.63193609
0.11878595	0.56626679	0.62956297
0.60275523	0.31962945	0.61807923
0.6283941	0.82199321	0.64186756
0.61968132	0.05923459	0.13247846
0.61203101	0.56554051	0.118919
0.10619737	0.31524206	0.1266937
0.1209685	0.82357012	0.14450858
0.10212887	0.06214639	0.62890859
0.10789667	0.56785499	0.62650731
0.6092785	0.31616937	0.62121628
0.62858714	0.82349136	0.63964981
0.60429691	0.066143	0.10978541
0.60965073	0.56488535	0.1254532
0.09932238	0.31392872	0.1207984
0.11418215	0.82071112	0.12904491
0.10322374	0.05927518	0.62315906
0.10357196	0.56941469	0.61958413
0.61901848	0.31458487	0.63276539
0.62186067	0.82462152	0.64415392
0.59385357	0.06905124	0.09559677
0.61324331	0.56829778	0.1160026
0.09826702	0.30966439	0.11640341
0.11119618	0.81855661	0.13533907
0.10759086	0.0580093	0.61873651
0.10791752	0.56986353	0.61852291
0.61862912	0.31511255	0.63576458
0.61928059	0.82442278	0.64525133
0.5987608	0.06339683	0.10809548
0.61719049	0.57131124	0.11459008
0.10480692	0.30815183	0.11613241
0.11210446	0.81982483	0.15560965
0.10948896	0.05889485	0.62543092
0.11204459	0.56887411	0.62726444
0.61193072	0.31726612	0.62452287
0.62903908	0.82395077	0.64278669
0.60914026	0.05765941	0.12273949
0.6183885	0.56880071	0.12406473
0.10815714	0.3111946	0.11384682
0.11431009	0.823512	0.15788888
0.10476725	0.05967742	0.636888
0.10899562	0.56786154	0.63304483
0.61167328	0.31967755	0.61206629
0.63887986	0.8242049	0.64032389
0.60399748	0.05906552	0.11541399
0.6207953	0.56278698	0.13005171
0.10097865	0.31237565	0.10161153
0.11464393	0.82677886	0.13965862
0.09883767	0.05575568	0.62807468
0.10111443	0.56559731	0.624682
0.6264242	0.32039918	0.61289219
0.64231068	0.82394081	0.64122211
0.5877857	0.06488447	0.09387578
0.61769114	0.56109545	0.13063527
0.09544191	0.3124132	0.09362129
0.11425747	0.82615683	0.13557039
0.09467802	0.05731838	0.61224978
0.09630236	0.55977583	0.61914505
0.63648098	0.31698876	0.62400436
0.64006371	0.82355666	0.64153361
0.58853964	0.06733602	0.07942999
0.61402027	0.56551973	0.11983344
0.09832415	0.3141069	0.10000765
0.11450215	0.82117192	0.15164164
0.09865399	0.05902553	0.60453132
0.10177611	0.55566056	0.62579411
0.62931654	0.31217293	0.62785744
0.63273251	0.8238239	0.63591204
0.60733979	0.06220164	0.08270482
0.61559101	0.5712927	0.11741411
0.10239962	0.31542701	0.10770412
0.10828196	0.8176342	0.1678489
0.10789553	0.05740761	0.60713889
0.10952188	0.55802472	0.63503764
0.61386289	0.31174343	0.61576221
0.62932041	0.8239037	0.6308155
0.62111762	0.05687669	0.09544093
0.61662105	0.57332899	0.13039799
0.10329932	0.31666571	0.10336627
0.10583588	0.81654309	0.16567636
0.11193072	0.06015495	0.61584485
0.11000359	0.56355702	0.63978321
0.60467328	0.31289539	0.60136628
0.63134934	0.82359978	0.63351222
0.6108207	0.06072033	0.10785667
0.62171957	0.57232512	0.13310358
0.10076636	0.31672836	0.09151309
0.11143211	0.81791221	0.14517809
0.11144427	0.06045679	0.61758854
0.10739409	0.5685826	0.63229014
0.61627879	0.31429228	0.60674403
0.63322005	0.82113712	0.64292879
0.60422876	0.06844658	0.10893401
0.62756308	0.5717012	0.12240613
0.10123262	0.31633692	0.09547976
0.11035492	0.82233475	0.13190471
0.11600167	0.0602191	0.61374606
0.10822982	0.56888611	0.62203006
0.62030565	0.31443638	0.61881425
0.62763406	0.81713196	0.6475397
0.61928216	0.06552303	0.10446733
0.6267542	0.57326004	0.11094649
0.11086339	0.31607372	0.11121027
0.10454638	0.82447495	0.13973347
0.12578258	0.06186716	0.60925913
0.12005016	0.56630992	0.62317025
0.60646026	0.31184818	0.61619958
0.62155953	0.81427259	0.64348576
0.63873009	0.05853503	0.10600263
0.63204149	0.57515323	0.11293357
0.12566605	0.31560725	0.12097065
0.10891567	0.8215655	0.15259877
0.12431552	0.05919628	0.60619829
0.1310079	0.56653956	0.64280539
0.59920225	0.31388625	0.59753699
0.62588642	0.8131625	0.64097638
0.64285662	0.05873181	0.11106536
0.63545532	0.57370101	0.12297209
0.13271296	0.31847269	0.11774061
0.11987358	0.82071574	0.16101783
0.10910791	0.05507702	0.60663394
0.12849147	0.56885724	0.66421954
0.60160893	0.31729446	0.5874485
0.62635712	0.81492852	0.64066209
0.63411898	0.06597582	0.11648482
0.62878932	0.57025349	0.1291006
0.13400771	0.32092967	0.10715636
0.12815361	0.82366392	0.15486142
0.10288543	0.05248556	0.60885236
0.1174467	0.56541614	0.66882122
0.60687315	0.31683035	0.5981657
0.62601377	0.81768924	0.64574193
0.62972991	0.07165156	0.11479432
0.62039729	0.56888455	0.12827663
0.12833689	0.31961924	0.10985259
0.12472672	0.82328765	0.13752379
0.11331259	0.054939	0.60809426
0.11139411	0.55987872	0.65548891
0.60697055	0.3139104	0.61986899
0.62705355	0.81865172	0.64870152
0.63412683	0.06948947	0.10079039
0.6136237	0.56961046	0.12454199
0.11946914	0.31903706	0.12439008
0.12012671	0.82122192	0.12591588
0.12985998	0.06350516	0.60728379
0.11529993	0.56536066	0.6391941
0.60120076	0.3104716	0.62111395
0.61808083	0.81808836	0.64554375
0.6344457	0.06275793	0.09778391
0.61730801	0.57099498	0.12414177
0.11802871	0.31725204	0.13043275
0.12204085	0.8212584	0.13317308
0.13266055	0.07145579	0.60824074
0.13053252	0.57467131	0.63844544
0.60550818	0.31175619	0.60276552
0.608452	0.81524266	0.64439977
0.62940765	0.05771352	0.10686774
0.62366532	0.57193425	0.12611471
0.12581543	0.31523254	0.12426321
0.12856388	0.8223936	0.14767023
0.12610675	0.07162954	0.6187656
0.13487185	0.57552809	0.64973422
0.62104272	0.31280748	0.59483598
0.61026572	0.81426365	0.64549664
0.62807519	0.05825087	0.10608091
0.62692218	0.5717321	0.12718352
0.13068536	0.3164566	0.11962854
0.13657175	0.82368836	0.15072949
0.12286225	0.0626926	0.62285652
0.12377973	0.56759338	0.65807396
0.62599511	0.31128895	0.60804521
0.62092898	0.81768081	0.64190028
0.63049618	0.06313421	0.09275611
0.62643705	0.57178064	0.12804856
0.12616677	0.31854953	0.12239155
0.1350995	0.82463491	0.13801215
0.12925757	0.0532222	0.61393967
0.11602539	0.56170608	0.65390061
0.62299623	0.30927939	0.62201417
0.62982699	0.81866811	0.63377341
0.63483481	0.06700466	0.08798281
0.62228912	0.57182346	0.12647608
0.11905543	0.32044394	0.126105
0.12967443	0.82400444	0.12722596
0.13676283	0.05378886	0.61291018
0.1160892	0.56396259	0.64379358
0.62344283	0.30672705	0.62139026
0.62706819	0.81931381	0.6247883
0.63431087	0.06636913	0.09964943
0.62248839	0.5688458	0.12607677
0.11792838	0.32007241	0.12325367
0.13089103	0.82156174	0.12903755
0.13384792	0.06010361	0.62020788
0.12189377	0.56861488	0.64139837
0.63235571	0.30744013	0.6122429
0.61841107	0.81880203	0.6226583
0.63587744	0.06181308	0.10851724
0.62981972	0.56604229	0.12745617
0.12526438	0.3187888	0.11656814
0.13166491	0.82038599	0.14088428
0.12695917	0.06214712	0.62477119
0.12161978	0.56880359	0.64733915
0.64094007	0.31109572	0.61102129
0.61741161	0.8165789	0.63054637
0.64505089	0.05871881	0.10276101
0.6374127	0.56687632	0.12639906
0.13057895	0.31728785	0.11265932
0.13287565	0.82187622	0.15010384
0.12505205	0.05940581	0.62292678
0.11643549	0.56296064	0.64400562
0.63599419	0.31320206	0.61985056
0.63114725	0.8177162	0.63949069
0.64869979	0.0637972	0.09322404
0.63985881	0.56854503	0.12523333
0.12866718	0.31466273	0.11392034
0.13490604	0.82228826	0.14148158
0.12767711	0.05757661	0.61972451
0.11794671	0.56001414	0.63656286
0.62918361	0.3113959	0.62438661
0.64456546	0.81815655	0.64025225
0.65155475	0.0686649	0.0948423
0.63415093	0.56903843	0.1260767
0.12624127	0.31423085	0.1189963
0.13523414	0.82162854	0.12904132
0.13651606	0.06075926	0.62566041
0.12227344	0.56622271	0.63338825
0.62994321	0.30736421	0.62074115
0.64049749	0.8161679	0.63281491
0.65247683	0.06689408	0.10864675
0.63318606	0.56902408	0.12662376
0.13274084	0.31291291	0.12023246
0.13363682	0.82065454	0.13434678
0.14101791	0.06347996	0.63179145
0.12507681	0.57321994	0.63526702
0.63401635	0.30827179	0.61711447
0.62839087	0.81598102	0.63138738
0.65228598	0.06286565	0.1216743
0.64589103	0.56818269	0.12639351
0.14329683	0.31170721	0.11773412
0.12818373	0.8174694	0.14079471
0.13868393	0.06061872	0.63078004
0.12189089	0.57357039	0.63851103
0.63684257	0.31482896	0.62277731
0.62801413	0.81697739	0.63522638
0.65474965	0.06182214	0.12300179
0.65214647	0.56837149	0.12370017
0.1466937	0.31483768	0.12018086
0.12390574	0.81390818	0.13510065
0.13476099	0.05864326	0.62776555
0.11643601	0.56824367	0.63448147
0.63521686	0.31890474	0.63475719
0.63653221	0.81813072	0.63374945
0.65335876	0.0659509	0.11439478
0.64469125	0.56996308	0.12226631
0.14237507	0.31487731	0.1235984
0.12379283	0.81562509	0.12331976
0.13314966	0.06060222	0.6260306
0.12092378	0.56339544	0.62932642
0.63427342	0.31697873	0.63871982
0.64185551	0.81914945	0.63280109
0.64956286	0.06797872	0.11165169
0.63546495	0.56956646	0.1288397
0.13666128	0.31382882	0.12731198
0.12384935	0.8208488	0.12238373
0.13561343	0.06472151	0.63022314
0.13245637	0.56461223	0.63010878
0.63986154	0.3134954	0.63050656
0.63344076	0.82104208	0.63706838
0.64731876	0.0643284	0.12193279
0.64205636	0.56813651	0.1336366
0.1361914	0.3143736	0.13053839
0.12143254	0.82353216	0.13212874
0.13610874	0.06490252	0.63512748
0.14058778	0.56917295	0.63475748
0.6484866	0.3159201	0.62266983
0.62396433	0.82473495	0.64110998
0.64729474	0.06017322	0.13537137
0.65289172	0.5686708	0.1282662
0.14383854	0.3145878	0.13132337
0.11486053	0.8229768	0.13477433
0.13251665	0.0590894	0.63236607
0.13973193	0.56922695	0.63736145
0.65254204	0.32194497	0.62705771
0.62666257	0.82659191	0.6425544
0.6493387	0.05888695	0.13899163
0.64781525	0.57160267	0.11939043
0.15237951	0.31655616	0.13454713
0.11332448	0.81961691	0.12443077
0.12606176	0.05524037	0.62751309
0.1319355	0.56381655	0.62937799
0.65017472	0.32177392	0.64182835
0.63355434	0.82641027	0.63917609
0.64568307	0.06147606	0.13259986
0.636213	0.57337342	0.11616928
0.15057114	0.31469074	0.13771451
0.12426208	0.8163473	0.10866942
0.12240774	0.05743967	0.62145995
0.12838686	0.56281009	0.62094697
0.64806278	0.31755834	0.64775974
0.63029795	0.82717751	0.63548548
0.63985757	0.06524901	0.1319772
0.63130451	0.57188971	0.125254
0.14219947	0.31160304	0.13657265
0.13369475	0.81875143	0.09925421
0.12959843	0.06296313	0.62121044
0.13482814	0.56811874	0.62275073
0.6519121	0.31796037	0.64496004
0.61513326	0.82874046	0.63719695
0.63672068	0.06455616	0.14770277
0.63743445	0.56899927	0.13449474
0.14156653	0.31341572	0.13376005
0.12926921	0.82297531	0.10292256
0.13560564	0.06702987	0.62863307
0.13877495	0.57029285	0.63384884
0.65702313	0.32306748	0.64385637
0.60986243	0.83083976	0.63818904
0.63146702	0.06242287	0.16203743
0.6497381	0.56904262	0.13354005
0.14998308	0.31715615	0.12897274
0.12622146	0.82380481	0.10454725
0.1333425	0.06481954	0.63181566
0.13657801	0.56635342	0.64050355
0.65717244	0.32829148	0.64902402
0.62548915	0.82969363	0.63310968
0.63053585	0.06313773	0.15603791
0.6513256	0.57151075	0.12701531
0.15361969	0.32193086	0.12528182
0.12720552	0.82362319	0.09861076
0.13416111	0.06268615	0.63243361
0.12691529	0.56401263	0.63397664
0.64971238	0.32783865	0.65610477
0.63911417	0.82473813	0.62291596
0.63244202	0.06633423	0.14601351
0.64110061	0.57121756	0.12997774
0.13898467	0.32472034	0.12679281
0.13049838	0.82635455	0.09639172
0.13003548	0.06412504	0.63312149
0.12475352	0.56593675	0.61805571
0.64307858	0.32230453	0.65306974
0.63583883	0.82711999	0.61431053
0.632777	0.06820772	0.14972544
0.62934247	0.56686687	0.14033838
0.12013588	0.32230135	0.13175676
0.13345032	0.83029808	0.10374345
0.12466719	0.06432557	0.63507773
0.13109229	0.57132541	0.61167602
0.64685593	0.31919031	0.6412406
0.62115379	0.83121997	0.61272521
0.63476665	0.06439933	0.15727669
0.62749155	0.56619122	0.14229527
0.12120947	0.31855548	0.13644584
0.13220116	0.82970047	0.11259119
0.13012571	0.06225096	0.64750514
0.13503105	0.5757822	0.6223436
0.65393735	0.32136125	0.6402608
0.61449101	0.82778853	0.61894119
0.62921032	0.05936605	0.15830576
0.63785392	0.57211197	0.1345313
0.13164238	0.31532842	0.13696718
0.1330107	0.82450054	0.10583964
0.14355151	0.06056751	0.65613747
0.13314943	0.5760247	0.63390976
0.64857697	0.32346946	0.65361061
0.62747986	0.8209689	0.62076571
0.62152943	0.06174655	0.15491258
0.6432017	0.57546048	0.12754699
0.12462669	0.31483462	0.12958618
0.13378019	0.82034309	0.09205342
0.15190918	0.06650425	0.65784736
0.13071707	0.57699714	0.62470988
0.63801939	0.32145921	0.66986344
0.64645365	0.81688453	0.61332635
0.61666069	0.0698582	0.15825578
0.63777325	0.56989136	0.12588344
0.1075892	0.3160778	0.12041205
0.13374345	0.82134298	0.09261077
0.15184633	0.0794879	0.66154772
0.13391827	0.58160406	0.61018667
0.63454546	0.31901973	0.67855291
0.64828637	0.81911317	0.60932771
0.610821	0.0771977	0.1703562
0.62920591	0.56450585	0.12858445
0.10491524	0.31779127	0.11658459
0.13210871	0.82940249	0.10656154
0.14706405	0.08554462	0.66767411
0.14696769	0.58756802	0.61355416
0.64393294	0.3169202	0.67815732
0.64092074	0.82435526	0.61584043
0.60978705	0.0695451	0.17879943
0.63559708	0.56422301	0.13202752
0.12279607	0.32309522	0.11980636
0.12680266	0.83385013	0.12062819
0.14152771	0.08226898	0.67522982
0.14976326	0.58991601	0.62322275
0.65075917	0.31790282	0.67775145
0.64017328	0.82540259	0.62243947
0.6099506	0.05934177	0.1792789
0.6504343	0.56770515	0.1373465
0.13893765	0.32639819	0.13046282
0.12879492	0.82933625	0.12168762
0.13412352	0.07603004	0.67535623
0.14436039	0.58616676	0.63033946
0.64751668	0.32184646	0.67920177
0.65595213	0.82234134	0.61796721
0.60706254	0.05752929	0.17456202
0.63361829	0.57037678	0.14599274
0.13233516	0.32538886	0.14371533
0.13756871	0.82212573	0.11535959
0.12644827	0.0709214	0.66177982
0.13943466	0.5828261	0.6270207
0.64080632	0.31970168	0.67997288
0.66346378	0.82078505	0.60288575
0.60947756	0.05960158	0.16648247
0.6156194	0.57041116	0.14896732
0.1195309	0.32415596	0.15295871
0.14425412	0.82209691	0.11343082
0.11985084	0.07086994	0.65126268
0.14221392	0.58420841	0.62272432
0.63472268	0.31644887	0.67989004
0.65016238	0.82293176	0.60550263
0.61238282	0.06024536	0.16194044
0.61904316	0.57075488	0.14499376
0.1158017	0.32205782	0.15482811
0.14356873	0.82324788	0.12208714
0.11932017	0.07462209	0.65204366
0.15119969	0.58681553	0.63078453
0.63558087	0.31651209	0.68035265
0.63690609	0.82853634	0.62178437
0.61170591	0.06017401	0.16102726
0.63375766	0.57154031	0.14031158
0.12458391	0.31925978	0.15986493
0.13318813	0.82230324	0.12855984
0.1224973	0.07669284	0.66061167
0.15875694	0.58592156	0.64086449
0.63741402	0.31779821	0.67632073
0.63611943	0.8318451	0.62161136
0.60983382	0.06219115	0.15845388
0.64099512	0.56949767	0.13225583
0.13386239	0.31791438	0.16464629
0.12504723	0.82163697	0.12489549
0.1241734	0.07624435	0.66777048
0.15510222	0.58024609	0.63779616
0.6384235	0.31884192	0.66863862
0.6486746	0.82925927	0.6139026
0.60722008	0.06625549	0.15891075
0.6345187	0.56451334	0.12570128
0.13053834	0.31929833	0.16090261
0.12604061	0.82241068	0.11723977
0.11934397	0.07410048	0.66684821
0.13882506	0.57548274	0.63435411
0.63667438	0.31988903	0.66393266
0.66828351	0.82661812	0.61099325
0.60766706	0.0651953	0.16228009
0.62998733	0.55853422	0.12564124
0.11378164	0.32035101	0.15358887
0.13060838	0.82530571	0.11639254
0.11237222	0.07337683	0.66385087
0.13000888	0.5780166	0.63757127
0.63080757	0.32230832	0.66237157
0.6687021	0.82745677	0.61742172
0.61372738	0.05949026	0.16381609
0.63493944	0.55629924	0.12706167
0.10381581	0.31944325	0.15416992
0.13222293	0.82670053	0.116851
0.10898855	0.07626668	0.66352233
0.13411129	0.58296926	0.64476059
0.62486884	0.32563428	0.65773034
0.65674045	0.83170954	0.62726169
0.61898165	0.05849295	0.16452435
0.64138053	0.55968561	0.12704683
0.10967804	0.31771765	0.16030271
0.1287852	0.8260582	0.1114549
0.10746768	0.07568282	0.66052399
0.1449419	0.5797763	0.64782837
0.62257232	0.32719436	0.64803906
0.65133437	0.83540173	0.63065863
0.61824627	0.05998033	0.16472016
0.64105947	0.5655671	0.11955841
0.11525928	0.31653597	0.16230359
0.13149194	0.82427891	0.10406995
0.10313945	0.06986473	0.65801655
0.14707006	0.57476431	0.64001589
0.62390005	0.326749	0.63978591
0.6544979	0.8342487	0.62683255
0.61124963	0.05863593	0.16298869
0.62959125	0.56851638	0.11614248
0.10993817	0.31517006	0.15768978
0.13663225	0.82109521	0.09593683
0.09694959	0.06752906	0.6553439
0.13912231	0.57174958	0.62881041
0.62396893	0.32620504	0.63717982
0.66082904	0.8305714	0.62346205
0.60640402	0.05710177	0.15909179
0.61694439	0.56757359	0.12349361
0.09737843	0.31202472	0.14883926
0.13161245	0.81905416	0.09989087
0.09415893	0.06998049	0.65368363
0.1295893	0.57304878	0.62652773
0.61659257	0.32610265	0.6360124
0.65995329	0.83000919	0.62418776
0.6095404	0.05929201	0.15235602
0.61835567	0.56461824	0.12389092
0.09389538	0.3078283	0.14379673
0.12173304	0.8182325	0.11371428
0.09947837	0.07194089	0.658077
0.12408518	0.5752541	0.62908618
0.60733753	0.3277534	0.63228333
0.65043836	0.83191916	0.62359819
0.6146871	0.06463906	0.14466869
0.63001218	0.563682	0.11581824
0.10587274	0.3072186	0.14461653
0.11748835	0.81808377	0.11378802
0.10756062	0.06802119	0.66114606
0.12349712	0.57245618	0.6314154
0.60990969	0.32835032	0.62551429
0.64356754	0.83260666	0.62029152
0.61625775	0.06697281	0.14251745
0.64040799	0.56808166	0.10764149
0.11567242	0.31353865	0.14264082
0.11986984	0.82010776	0.10847699
0.10948048	0.06108218	0.66123375
0.12406254	0.56814782	0.62756706
0.61959825	0.32440085	0.62149817
0.64626167	0.83044502	0.61827375
0.61491865	0.06388154	0.1445646
0.63241508	0.57174662	0.10762011
0.11174095	0.31760931	0.13387148
0.12647666	0.82154539	0.10907243
0.10903428	0.05883103	0.65612993
0.12493221	0.56820694	0.6210343
0.62475415	0.32375143	0.62096228
0.65052256	0.82537505	0.61900945
0.61160894	0.05932067	0.13912156
0.61878893	0.57123531	0.12029369
0.10584267	0.31440344	0.12329808
0.12970834	0.82254471	0.11366326
0.11167581	0.06175768	0.64972562
0.12983123	0.57251569	0.62601581
0.62095558	0.32355224	0.62354554
0.64282384	0.82267735	0.6229347
0.61311002	0.05873172	0.12692172
0.62029842	0.5717663	0.1306111
0.11033924	0.31052492	0.12288455
0.12612713	0.82170541	0.12213301
0.12006534	0.06484739	0.6492299
0.13518782	0.57545458	0.63759261
0.61355571	0.31954683	0.62948958
0.63095148	0.82451174	0.62414718
0.61794285	0.06398745	0.11916099
0.6324317	0.57364611	0.13093336
0.12205207	0.31159821	0.12242261
0.12226005	0.81879216	0.12510685
0.12829745	0.06481544	0.64218969
0.12752088	0.57086321	0.63578846
0.61529275	0.31611224	0.63312856
0.62968189	0.82519436	0.62102323
0.61745177	0.06913	0.1181289
0.63253212	0.57472727	0.12201389
0.12529068	0.31783815	0.1136682
0.12295021	0.8180774	0.12311488
0.13230053	0.06095459	0.63066965
0.11486179	0.56476097	0.62664536
0.6302648	0.31298648	0.63203037
0.63391426	0.82126389	0.61845968
0.61430862	0.06677169	0.1168772
0.62388839	0.57370234	0.11517627
0.11801052	0.32149713	0.10566292
0.12728283	0.8198489	0.12913136
0.1332049	0.05874568	0.6248912
0.11425133	0.56502441	0.62198591
0.63711844	0.31403824	0.63062055
0.63283074	0.81812473	0.62270441
0.61981983	0.06174181	0.10938497
0.6200858	0.57014616	0.12017288
0.11390604	0.3178664	0.10414031
0.13086533	0.82067446	0.13607057
0.13399276	0.06211577	0.6234604
0.11758179	0.56793158	0.62894996
0.62740353	0.31840413	0.63151776
0.62589524	0.81932739	0.63403768
0.63363227	0.06100467	0.10159359
0.62860475	0.56956255	0.12930608
0.12207592	0.31163267	0.10962547
0.13164745	0.81928039	0.13982275
0.13915143	0.0651593	0.62658383
0.11715806	0.57009623	0.63979785
0.6207896	0.31803586	0.63536819
0.61606888	0.82091168	0.64206992
0.64730694	0.06558394	0.10366994
0.63445944	0.5736649	0.13494014
0.13453852	0.31236321	0.11481036
0.12930138	0.81771234	0.13880706
0.14757985	0.06219709	0.61990848
0.11153619	0.56764019	0.64097995
0.62891476	0.3116681	0.62891575
0.61416995	0.81930027	0.64148065
0.65560812	0.0708006	0.11205403
0.62486733	0.57681024	0.13485817
0.13756388	0.32048307	0.10580986
0.12584029	0.82205203	0.1362272
0.15099971	0.05787281	0.60241119
0.10873428	0.56068374	0.62974303
0.63933016	0.30391516	0.62222735
0.62005311	0.81343268	0.63740946
0.65709532	0.07113307	0.11576964
0.61146393	0.57497348	0.1309711
0.13145119	0.324218	0.09301355
0.12234738	0.82811735	0.14475622
0.14849835	0.05934236	0.59100018
0.11477308	0.56318943	0.61983338
0.63802487	0.30141893	0.62377005
0.61646559	0.80872415	0.63902133
0.65592051	0.06834987	0.10950787
0.6123333	0.5709486	0.13003145
0.13050259	0.31616465	0.08741868
0.11926445	0.82856714	0.15659785
0.14723355	0.06378103	0.59240914
0.12386646	0.57140679	0.61890716
0.62525544	0.30279224	0.61607869
0.60899125	0.81204209	0.64891862
0.65900498	0.06962154	0.09828008
0.62546164	0.57030777	0.13686034
0.13558753	0.3101097	0.09433507
0.11380309	0.82490287	0.15843133
0.14948454	0.06430165	0.60043525
0.12549354	0.56998025	0.62073497
0.62468334	0.3035686	0.61572477
0.60617249	0.81400411	0.66067454
0.66953879	0.07308256	0.09402522
0.63398848	0.56871385	0.13877264
0.13547384	0.3136233	0.10348414
0.10458405	0.821727	0.15578511
0.15093432	0.05954669	0.59650703
0.11584151	0.55732487	0.62250329
0.64319263	0.30235273	0.6127319
0.60547717	0.81151746	0.66477347
0.6808839	0.07168055	0.09070691
0.6256504	0.56664942	0.13069007
0.1305936	0.32094246	0.10549408
0.10316727	0.82215685	0.15030647
0.14505647	0.05246351	0.5813573
0.1042674	0.54998724	0.61923655
0.66648808	0.30148397	0.59937925
0.60446258	0.80898369	0.66218797
0.68514531	0.06604478	0.08039661
0.61495412	0.56565466	0.11914887
0.13358129	0.31917495	0.09940017
0.11120968	0.82462023	0.1524429
0.13659225	0.05037847	0.57357674
0.10693746	0.55441149	0.61298718
0.67820192	0.30201224	0.59662317
0.59639073	0.80888463	0.66592786
0.68082077	0.06321973	0.0684336
0.61450614	0.56606191	0.11514304
0.14857726	0.31190462	0.09487843
0.11797034	0.82765614	0.15777744
0.13524453	0.04889933	0.57234627
0.11246945	0.56167106	0.61562518
0.66580004	0.30459298	0.59881903
0.58891919	0.81116181	0.67572188
0.67493868	0.06359966	0.0631294
0.62423389	0.56956725	0.11686652
0.15986641	0.3144173	0.09749151
0.117651	0.82946482	0.15354613
0.13991552	0.04456524	0.57546504
0.11391662	0.56259908	0.62859562
0.64176782	0.30690404	0.60136353
0.59174779	0.81410016	0.67319492
0.67792137	0.06656405	0.06542146
0.63119331	0.5720356	0.11243413
0.15868195	0.32572907	0.10110136
0.11429575	0.82967567	0.15154626
0.14912219	0.04396376	0.57791352
0.10494089	0.55710639	0.63370622
0.63237211	0.30403611	0.59825886
0.59558771	0.81426891	0.66579641
0.68128122	0.06848884	0.06925508
0.62462545	0.57220426	0.11593406
0.15169272	0.33180671	0.09676421
0.10804137	0.82810034	0.15458992
0.15274718	0.04666974	0.57372457
0.09204907	0.5514032	0.6252724
0.64747868	0.302279	0.58442036
0.59795878	0.81126743	0.66114695
0.67600061	0.06551894	0.06534553
0.61569211	0.57092398	0.12480407
0.15331099	0.32986102	0.08909934
0.10696873	0.82717137	0.16103301
0.14666556	0.04859364	0.57832147
0.0928678	0.54971366	0.61875019
0.66424715	0.30501882	0.57461685
0.59768879	0.80649001	0.66499662
0.6678479	0.06125033	0.05245066
0.62115015	0.56864559	0.12155405
0.16503455	0.31995406	0.08864073
0.10890734	0.82795417	0.16600629
0.14099367	0.04892276	0.58230506
0.10589329	0.55223018	0.63056554
0.66003553	0.30512481	0.5713091
0.59681233	0.80279402	0.67266374
0.66627101	0.05992916	0.04450556
0.63494015	0.5677111	0.11894281
0.17106933	0.31252075	0.09951038
0.10803149	0.82611104	0.1613485
0.1393829	0.04728919	0.58337459
0.11799363	0.55490193	0.64557327
0.6380989	0.30630642	0.5767391
0.60265375	0.80465623	0.66971823
0.67120371	0.06030099	0.05474928
0.63785802	0.56792761	0.11872815
0.16497204	0.31057925	0.10664523
0.10367843	0.8232026	0.15578466
0.14303948	0.04568978	0.58521876
0.1149048	0.55998545	0.64718371
0.62340859	0.30650448	0.58602407
0.60431333	0.81131338	0.66061709
0.67501581	0.06258275	0.06869367
0.63376205	0.56748335	0.11681635
0.16063526	0.31101836	0.10347442
0.10528812	0.82044187	0.15422524
0.14488349	0.04702165	0.58087077
0.1042316	0.56494583	0.64037905
0.63505519	0.30542905	0.58982847
0.59899044	0.81662878	0.65393353
0.6749797	0.06406971	0.07424785
0.63848946	0.56761434	0.11678379
0.16506894	0.31448886	0.09720542
0.11219639	0.81941546	0.15593705
0.13838746	0.04871012	0.58202732
0.1070248	0.56711727	0.63984826
0.65604442	0.30661381	0.5889713
0.59589328	0.81491144	0.65001504
0.67253168	0.06190948	0.0753066
0.65529709	0.56681377	0.11840746
0.1734831	0.31557534	0.09970485
0.11595251	0.82051815	0.1587689
0.13691185	0.05090107	0.58940767
0.12617248	0.56697981	0.65264056
0.6550708	0.30795865	0.5937249
0.60255266	0.81081344	0.64963244
0.66749004	0.05944	0.0779055
0.66797766	0.56734064	0.12507207
0.16907187	0.3139265	0.10970486
0.11622204	0.81981007	0.15862083
0.14464702	0.05305073	0.59311819
0.13428428	0.55992524	0.66692733
0.63763634	0.30994996	0.60370497
0.61951388	0.8109685	0.64663755
0.66302883	0.05798683	0.08557418
0.66295387	0.56944444	0.1345582
0.15345055	0.31481417	0.11930052
0.11499833	0.81784217	0.15955683
0.15288742	0.05499789	0.59696672
0.12902917	0.55400439	0.66329351
0.6298044	0.31143763	0.61018867
0.62528157	0.81680367	0.63824343
0.65666568	0.05895556	0.09595536
0.64973438	0.57023137	0.13651569
0.14515825	0.31410081	0.11664164
0.11703893	0.81629677	0.16179778
0.15033845	0.05816523	0.60199036
0.12463811	0.55553621	0.65527402
0.64054502	0.31122145	0.61168943
0.61729382	0.81857843	0.63276417
0.6480978	0.06043082	0.10393599
0.65002839	0.56996504	0.13199775
0.15136941	0.31336281	0.10876849
0.12465363	0.81561112	0.15626479
0.13717083	0.05974407	0.61168425
0.13317625	0.55954317	0.65107976
0.65384051	0.31075812	0.61261238
0.61168171	0.81348049	0.6317869
0.64670973	0.05973139	0.10571717
0.65858275	0.56968449	0.12536432
0.15714576	0.31218809	0.11370159
0.13274559	0.81504383	0.14616308
0.13262137	0.05841909	0.62170078
0.14240486	0.56531081	0.65215286
0.6484739	0.31007123	0.61845029
0.61507569	0.81303744	0.6353812
0.64807285	0.06059227	0.10434039
0.65598117	0.57021139	0.12562544
0.15178237	0.30950461	0.12910506
0.13787846	0.81330625	0.13719776
0.13656717	0.05757095	0.62244657
0.13965578	0.56291424	0.65666306
0.63546159	0.3102597	0.62943259
0.62540697	0.81705298	0.63459966
0.6429538	0.06269665	0.11009271
0.63981595	0.56959503	0.13735478
0.14042099	0.31209814	0.13609476
0.13819089	0.81226378	0.1342867
0.13355417	0.05759921	0.62281793
0.12454177	0.56121172	0.65428012
0.63783702	0.31109694	0.63272939
0.62967891	0.81917728	0.62631266
0.63596153	0.06436257	0.11997737
0.62829406	0.56714214	0.14413143
0.13423808	0.31507906	0.13091044
0.13897905	0.8166711	0.13411239
0.12820859	0.06043561	0.62521237
0.11716191	0.56698406	0.64601179
0.64875391	0.31108369	0.62995715
0.6237556	0.81822526	0.62759497
0.63414773	0.06430473	0.12671475
0.63449573	0.56513578	0.14053819
0.13441671	0.31443328	0.12143267
0.14280989	0.82241643	0.13060909
0.12395549	0.06341788	0.62961281
0.12796857	0.57075621	0.6408423
0.64740159	0.31273699	0.63427085
0.62467737	0.81499755	0.6315572
0.63619933	0.06083816	0.13313954
0.64460941	0.56346063	0.13646753
0.13408635	0.3151676	0.12239336
0.14012705	0.82477906	0.12588223
0.12400221	0.06135487	0.63397223
0.14123484	0.57026872	0.63946122
0.63101754	0.31472859	0.64519024
0.63362242	0.81713217	0.62872305
0.63112033	0.0594363	0.13572716
0.64474966	0.56556193	0.13841469
0.12784397	0.3153187	0.13610523
0.13583313	0.82336508	0.12090671
0.12881636	0.06013181	0.63221235
0.13768048	0.56871938	0.64158134
0.62123555	0.31473717	0.65361871
0.64145717	0.82281582	0.62686183
0.62154812	0.06190038	0.13560637
0.63632536	0.57103214	0.14855897
0.11725197	0.31476338	0.14280245
0.13595082	0.82037362	0.11798045
0.12659276	0.06260144	0.63409938
0.12509361	0.56918126	0.6282016
0.63095484	0.31393874	0.65096974
0.64390568	0.82643838	0.62815377
0.619827	0.06453778	0.1395091
0.62711043	0.57238904	0.14330576
0.11131022	0.31435339	0.13251984
0.13134427	0.82151348	0.11553522
0.11679714	0.06492954	0.6424411
0.11488174	0.57446733	0.61459657
0.64392931	0.31377123	0.6456233
0.63718449	0.82644677	0.62999327
0.62164726	0.06594023	0.14743157
0.62596485	0.57070714	0.13365542
0.11445013	0.31258782	0.12363783
0.13087192	0.82463489	0.10659408
0.11045791	0.06562912	0.65096857
0.12365234	0.57898918	0.62275313
0.64250935	0.31722504	0.64835024
0.634325	0.82347283	0.62757572
0.6266	0.06602342	0.15143274
0.63171255	0.56915841	0.1337123
0.11898008	0.31233483	0.12715682
0.13286527	0.82387585	0.1016044
0.11354389	0.06543377	0.65636661
0.14113378	0.57734811	0.62433634
0.62805102	0.31946056	0.65587209
0.64505959	0.82106027	0.62207829
0.63008625	0.06526642	0.15008072
0.63226642	0.56845987	0.13202987
0.11010311	0.31457281	0.14102634
0.12937762	0.82055745	0.10023308
0.12108398	0.06813252	0.65323426
0.14828909	0.57259594	0.61682383
0.61282038	0.31844151	0.66035622
0.65449074	0.82295347	0.6211895
0.62452921	0.06380499	0.15026425
0.6246265	0.57072572	0.12669373
0.09895199	0.31808742	0.15159648
0.13018326	0.8190202	0.09783358
0.1221242	0.07188891	0.65376112
0.14044777	0.57029459	0.6114299
0.61079723	0.31886767	0.65830776
0.65250286	0.82861212	0.62435099
0.61785352	0.06300484	0.15663647
0.61812136	0.57050134	0.11729089
0.09980083	0.32109762	0.14727769
0.13141368	0.82237957	0.09685715
0.11802153	0.07309312	0.66276462
0.12925667	0.57369785	0.60688443
0.6239712	0.32110196	0.65241088
0.64860193	0.83423457	0.6288568
0.61601553	0.06277621	0.16627069
0.6221807	0.56842429	0.11093256
0.10896089	0.31968465	0.1428665
0.1300134	0.82782346	0.09273932
0.11772791	0.07101626	0.6715986
0.13684887	0.5785015	0.61448182
0.63230529	0.32304596	0.65078033
0.65548472	0.83628195	0.62339942
0.61405163	0.06271921	0.17610049
0.63003363	0.56992289	0.1153805
0.11202625	0.31770796	0.15047777
0.1289642	0.8288206	0.08600038
0.11902075	0.0669154	0.67688255
0.14429438	0.58028874	0.61871404
0.62865025	0.32477441	0.66208708
0.66276699	0.83447992	0.61308631
0.61063079	0.06520581	0.17932725
0.6359417	0.57103669	0.12026967
0.10658775	0.31947186	0.16226748
0.12842541	0.82408009	0.08408968
0.12264828	0.0680543	0.67833393
0.13244449	0.57791782	0.61609769
0.6175486	0.32430744	0.67630013
0.65781654	0.83237533	0.61384432
0.60183368	0.06786754	0.17852898
0.63448836	0.57212234	0.12044547
0.09693063	0.32120108	0.16332939
0.12936812	0.81639574	0.08748269
0.12521371	0.07486352	0.68203428
0.12651078	0.57569024	0.61108065
0.61779769	0.32314937	0.67825746
0.65218792	0.83192041	0.61930509
0.5945318	0.06767116	0.18425108
0.62799167	0.57265779	0.11828121
0.0925636	0.3206149	0.15042024
0.12553261	0.81437026	0.0915067
0.122797	0.07987408	0.68834718
0.13177335	0.57705927	0.60899415
0.62634828	0.3242349	0.67209399
0.65146438	0.83365767	0.61694957
0.5942628	0.06424603	0.19181863
0.63082436	0.56933434	0.11907033
0.09632773	0.3164189	0.14557829
0.12217028	0.81800988	0.08697443
0.12230748	0.08135242	0.69349745
0.14081376	0.57960488	0.61580476
0.63002357	0.32782723	0.66943379
0.65505464	0.83437228	0.61003507
0.59477341	0.06214195	0.19008961
0.63226131	0.5659519	0.12105095
0.10266768	0.31356303	0.15574002
0.12701999	0.82267838	0.08011324
0.12302028	0.07987663	0.69340023
0.14110088	0.58032418	0.62578209
0.62697683	0.33140229	0.67430783
0.66124172	0.83133372	0.60162398
0.59335627	0.06366098	0.18484456
0.62066962	0.56522196	0.12026017
0.10494157	0.3172387	0.16706266
0.13505262	0.82357894	0.08028925
0.11665983	0.07843169	0.68648044
0.12953815	0.58100228	0.62673686
0.61867795	0.33326446	0.67649217
0.65667676	0.83006155	0.60534558
0.58664316	0.06695341	0.18475354
0.61292453	0.56818174	0.11626214
0.10267766	0.32314293	0.16827841
0.14101579	0.82155497	0.08813662
0.10477005	0.07755408	0.68348623
0.12440001	0.58317073	0.62046577
0.61875941	0.33147583	0.67058265
0.64648449	0.83383598	0.61754579
0.58823602	0.0689194	0.19148136
0.61931912	0.57293599	0.11367214
0.0982014	0.32558665	0.15447023
0.13716162	0.81917646	0.10450174
0.09515256	0.0749913	0.6861831
0.13335985	0.58354593	0.61458195
0.63278815	0.32835073	0.66119348
0.64535207	0.83579731	0.62173503
0.59260993	0.06759595	0.1966816
0.6279869	0.56973278	0.11896787
0.09976453	0.32017234	0.14181032
0.12767144	0.82419078	0.11490293
0.09337182	0.07396437	0.68558119
0.14310498	0.5807262	0.6213336
0.63563962	0.32923537	0.65569927
0.65384093	0.83276389	0.61578553
0.58587067	0.06306879	0.19197903
0.62483635	0.56406563	0.12852046
0.1052445	0.31335467	0.14157298
0.12275725	0.83026732	0.11430509
0.10338519	0.07471486	0.68437858
0.14254844	0.57719177	0.63101423
0.62904268	0.33429025	0.65978562
0.66023983	0.83033371	0.60719254
0.58484578	0.05783285	0.17898594
0.6181087	0.56386495	0.12770018
0.09720272	0.31562348	0.15081754
0.12593678	0.82931939	0.10701005
0.11516069	0.07552053	0.67242007
0.13230434	0.57542544	0.62054198
0.62080363	0.33858886	0.65904208
0.65096369	0.8318248	0.60837853
0.59408837	0.05525151	0.16963553
0.61993879	0.56887733	0.11478732
0.07917831	0.31821632	0.15804551
0.13297365	0.82404859	0.11136058
0.11261656	0.07597568	0.66056308
0.12726496	0.57790578	0.61126641
0.61934701	0.33753893	0.64904574
0.63330284	0.83462564	0.6184339
0.60419201	0.05533416	0.16838407
0.6271549	0.57183269	0.10717182
0.07800662	0.31715869	0.15230349
0.13028945	0.82087614	0.11877362
0.10395601	0.07508266	0.66216744
0.13623307	0.58415493	0.6174221
0.62421811	0.32915128	0.64724757
0.63218098	0.83708956	0.62072094
0.60541175	0.05782044	0.16481493
0.63134825	0.57044944	0.1163426
0.0900437	0.31476161	0.14043669
0.12225989	0.82263232	0.12387785
0.09387124	0.07391855	0.66001324
0.14509245	0.58572562	0.62162706
0.62895033	0.32302291	0.65291946
0.65022116	0.83711756	0.61455365
0.59561931	0.05920519	0.15132544
0.62808019	0.56601817	0.12435599
0.09990095	0.31223586	0.13597732
0.12859457	0.8257398	0.12590313
0.09386053	0.07295726	0.65357
0.13999092	0.57911726	0.62151785
0.6308029	0.32549798	0.65698569
0.66099373	0.83486468	0.60600941
0.59110646	0.05811307	0.13797033
0.6179988	0.56703116	0.11892146
0.09931912	0.31489812	0.13786666
0.13603787	0.82649246	0.12773689
0.10569067	0.07252475	0.65348276
0.12882569	0.57822202	0.62205492
0.62904633	0.32975018	0.65508667
0.64585933	0.83327241	0.60358225
0.59723372	0.05754646	0.13430094
0.61329407	0.57146168	0.10951527
0.09656617	0.3197326	0.14058537
0.13080653	0.82406455	0.13215793
0.11465705	0.07429466	0.65619571
0.12468232	0.58424455	0.63045259
0.62214474	0.32834291	0.64587569
0.62764305	0.83154734	0.61557791
0.60610795	0.05888371	0.13595211
0.61907498	0.57054831	0.11501324
0.09725232	0.31961537	0.13772176
0.12433147	0.82251281	0.13367343
0.12057946	0.07589585	0.6558321
0.13025687	0.58493838	0.63873239
0.61611664	0.32120301	0.63940016
0.63180859	0.82903961	0.61933772
0.61015149	0.06120114	0.13886917
0.62557963	0.56217097	0.12563227
0.10103579	0.31601413	0.12768156
0.1240761	0.82294535	0.12714544
0.12332131	0.07478855	0.64519935
0.13288194	0.57935542	0.63735031
0.61942784	0.31767397	0.64154143
0.6533741	0.82721042	0.60692195
0.60604419	0.06137849	0.13590127
0.62301824	0.55597382	0.12909319
0.10705086	0.31573057	0.12043816
0.12988142	0.82326425	0.11643669
0.12076948	0.07269971	0.63080121
0.12433989	0.57606344	0.62706486
0.6282444	0.32097463	0.6408238
0.65848991	0.82492444	0.60288543
0.60743238	0.06235623	0.12959382
0.61859374	0.55945397	0.12177135
0.11142763	0.31851693	0.12318187
0.13089723	0.82324377	0.11969066
0.11977148	0.07207335	0.62624846
0.11501004	0.57885073	0.61695849
0.63386668	0.32219172	0.63175755
0.64300847	0.82292074	0.61441864
0.62032393	0.06720453	0.12259768
0.61934909	0.57029758	0.11098702
0.11418033	0.3174116	0.12619464
0.12412966	0.82033795	0.13421806
0.11553169	0.07225046	0.62884475
0.11929101	0.58218346	0.61759026
0.63141237	0.3197668	0.62155013
0.63445906	0.82220238	0.63014607
0.62759079	0.06948205	0.11893339
0.62387673	0.57484359	0.11298593
0.1197712	0.31277655	0.12515009
0.12106808	0.81679274	0.13415329
0.11382628	0.07050258	0.62933555
0.12996738	0.57904732	0.63042791
0.62761511	0.31596603	0.61636484
0.64386057	0.82244601	0.63767525
0.62535166	0.06814687	0.12053535
0.62698923	0.57150755	0.12639984
0.12904635	0.3110455	0.11956856
0.12513802	0.81894691	0.12921986
0.12059493	0.06640382	0.6252668
0.12607934	0.57138253	0.64544715
0.62864339	0.31223918	0.6208073
0.6548024	0.82285657	0.63060674
0.62158616	0.06786702	0.12026747
0.62631179	0.56567898	0.13705779
0.1359498	0.31344532	0.11024533
0.13211692	0.82255482	0.13112422
0.12364054	0.06282144	0.62086313
0.11710705	0.5664709	0.64964822
0.62927758	0.31278123	0.62490317
0.64962208	0.81947246	0.62552239
0.62329546	0.06858371	0.11480841
0.62529935	0.56764272	0.13715415
0.13470246	0.31833791	0.11166978
0.13381326	0.82458802	0.13884576
0.12612506	0.06139571	0.62504684
0.1171073	0.56834928	0.63998381
0.62780643	0.31435753	0.62002448
0.63094285	0.81444711	0.63220088
0.63450738	0.06838975	0.1068043
0.63270789	0.57524833	0.13119065
0.12676268	0.3205256	0.11743638
0.12632167	0.82361168	0.1413991
0.12876842	0.06255536	0.62731145
0.1243754	0.56979591	0.62837644
0.62265411	0.31401096	0.6161904
0.62443535	0.81339053	0.64559678
0.64796069	0.06666272	0.10148851
0.64131292	0.57658094	0.12436845
0.12718556	0.31826646	0.11652851
0.12009846	0.82079906	0.13408268
0.12579654	0.06153996	0.61853833
0.12866656	0.56600215	0.63186106
0.61834632	0.31283904	0.61629301
0.63859524	0.81616608	0.65295324
0.6489446	0.06417776	0.10281746
0.63984985	0.57196959	0.12649231
0.13436349	0.31515302	0.11380803
0.12287273	0.82127536	0.13045541
0.12053712	0.05722475	0.6111455
0.12425691	0.56002733	0.64495522
0.62191721	0.31281987	0.61808862
0.64599612	0.81806421	0.64898411
0.64499135	0.06304781	0.1034132
0.6336106	0.57037542	0.13398015
0.14364007	0.31462344	0.11387258
0.12856792	0.82606416	0.13552955
0.11572033	0.05447833	0.61424895
0.11863707	0.55737612	0.6491082
0.62513901	0.31328875	0.6211491
0.6318218	0.8158477	0.64966034
0.64997562	0.06410804	0.09666606
0.6341428	0.5730652	0.13402688
0.14338745	0.3164078	0.1171309
0.13004675	0.82720461	0.14745314
0.1155262	0.05416091	0.6197672
0.11932332	0.55905302	0.64034139
0.6235358	0.31288262	0.61835495
0.61215108	0.8125783	0.65940969
0.65226153	0.06572656	0.08950881
0.64048885	0.57726798	0.126378
0.1333808	0.31907873	0.12316443
0.12310377	0.82624483	0.15425658
0.12721129	0.05444576	0.61475229
0.12494234	0.55977992	0.63758786
0.62403343	0.31122076	0.61525145
0.60996341	0.81397609	0.66111876
0.6486564	0.06588656	0.08768455
0.64645006	0.57639319	0.12291527
0.13741006	0.32000233	0.1260598
0.11426024	0.82462419	0.14877603
0.14003489	0.05183416	0.60386827
0.12535241	0.55756311	0.64958476
0.63478347	0.30792931	0.61808851
0.62342862	0.81749235	0.65403444
0.6527516	0.06513762	0.09241512
0.64381253	0.56997026	0.12576561
0.14341901	0.32094039	0.11994461
0.11616687	0.82306438	0.14371124
0.14123985	0.04402727	0.59834468
0.11764114	0.55552592	0.65991413
0.64672773	0.30461546	0.62298493
0.62730945	0.81837368	0.64361026
0.657004	0.0645669	0.09565555
0.63664591	0.56747222	0.13117423
0.13835416	0.32192932	0.11337955
0.12564391	0.82494977	0.1454769
0.13641571	0.0392486	0.5989413
0.10686687	0.55360758	0.65163074
0.64746744	0.30464389	0.62642175
0.60807038	0.8163734	0.63898727
0.657886	0.06432016	0.09098862
0.63704236	0.57192935	0.13360451
0.13558424	0.32078046	0.1125257
0.12437124	0.8269666	0.14881745
0.13539724	0.04297199	0.60239265
0.0998992	0.55222598	0.63526036
0.64186666	0.30592439	0.61909448
0.58577228	0.81352907	0.65226329
0.65875684	0.06534929	0.08511137
0.64346206	0.57638954	0.12755978
0.1401854	0.31756166	0.11634831
0.11127886	0.82361982	0.146067
0.14061066	0.05006331	0.6021336
0.10375952	0.55080102	0.6309297
0.63839062	0.30602708	0.60289385
0.58743831	0.81308065	0.66230999
0.66074842	0.06459277	0.08814815
0.64974132	0.57388872	0.12821008
0.15241002	0.31084142	0.11660052
0.10722688	0.8185995	0.13499082
0.14286022	0.05400649	0.59326834
0.11599201	0.54914033	0.64903943
0.64155693	0.30482963	0.59900847
0.6018015	0.81441931	0.65356531
0.66559665	0.0619482	0.0996366
0.64644261	0.5663642	0.13335839
0.16250945	0.30950326	0.10785288
0.11717239	0.81690724	0.12594679
0.14578087	0.0504148	0.58194181
0.12307451	0.55158702	0.66373765
0.64959854	0.30240469	0.60482083
0.59929956	0.81536088	0.64180032
0.67236033	0.06126491	0.1053636
0.63680725	0.56467415	0.13132467
0.16220472	0.31443789	0.09917475
0.12571207	0.81752687	0.13052554
0.1511313	0.04570223	0.5783201
0.11905185	0.55291286	0.65809804
0.64659443	0.30275704	0.60807333
0.58452858	0.81529573	0.63674054
0.6731605	0.06236286	0.09697838
0.64004655	0.56848571	0.12563288
0.15564984	0.31335962	0.09981491
0.12188618	0.8193463	0.14139768
0.15416404	0.04575761	0.58446252
0.10985875	0.55288655	0.63432167
0.63277246	0.30496849	0.60175825
0.58258163	0.81207875	0.64223121
0.67034897	0.06423303	0.08664611
0.64772148	0.57101481	0.11743847
0.14936794	0.30769534	0.1082333
0.1120996	0.81885137	0.14175676
0.15643071	0.05038731	0.59396919
0.11299374	0.55338926	0.60950218
0.63189681	0.30457558	0.58737624
0.60451203	0.80743028	0.64738783
0.67158786	0.06483905	0.0886403
0.64709027	0.56858178	0.11549621
0.15041362	0.30462971	0.11150373
0.11054384	0.81539511	0.12896303
0.15966725	0.05456228	0.59246841
0.12833395	0.553665	0.60676793
0.64750413	0.30317386	0.59729579
0.62837508	0.80549164	0.64086975
0.67749004	0.06413314	0.10398638
0.64230278	0.56100486	0.11955823
0.15948736	0.30961192	0.09565255
0.12158728	0.81157735	0.12708172
0.16334728	0.05415553	0.58848976
0.12473961	0.55954083	0.62306184
0.66526588	0.3026058	0.61785113
0.61706013	0.80773662	0.6330696
0.68782104	0.06580247	0.11317971
0.63381586	0.56055522	0.12465493
0.16080948	0.31629796	0.08534892
0.12764108	0.81213751	0.1363699
0.16323434	0.05322825	0.59528997
0.11110847	0.56448628	0.63776108
0.66552706	0.3055567	0.61887887
0.5944424	0.81255412	0.63503596
0.68984392	0.06737021	0.10719999
0.63690536	0.56719267	0.12690597
0.15173007	0.31313396	0.0916509
0.11870375	0.81641433	0.13774353
0.16002614	0.05679529	0.61301825
0.11326126	0.56529759	0.6320017
0.65564306	0.30888396	0.61035147
0.60033938	0.81428078	0.64660797
0.67788143	0.06266087	0.09743305
0.64349461	0.57139109	0.12364243
0.14321303	0.30664037	0.10102944
0.11292569	0.81947639	0.13132662
0.15968699	0.06221518	0.62125988
0.1268321	0.56395513	0.61356929
0.64888367	0.30767406	0.60690758
0.6240298	0.81023824	0.6455833
0.66435934	0.05667166	0.09714863
0.63908526	0.56596661	0.12236159
0.139229	0.30498199	0.10040702
0.11919442	0.81593971	0.12955275
0.16218047	0.0630654	0.61328544
0.14302918	0.56414776	0.60915604
0.64914705	0.30687723	0.61338267
0.63620595	0.808692	0.62658088
0.66005485	0.05434708	0.10262561
0.63090695	0.55888608	0.12739176
0.14810664	0.30704064	0.09763308
0.13173831	0.81232494	0.1377297
0.16099387	0.05835055	0.61254626
0.13983314	0.567893	0.62645915
0.65919224	0.30841122	0.62268655
0.62291366	0.81306397	0.6248758
0.6696106	0.05426952	0.11064745
0.62555466	0.55839946	0.13366706
0.15082526	0.31148019	0.10577053
0.13669073	0.81133409	0.14300304
0.15546998	0.05567468	0.62399542
0.12425498	0.57061738	0.63660798
0.66269674	0.31193169	0.62812288
0.60739392	0.8150985	0.64023179
0.67731187	0.05521596	0.11511718
0.62754597	0.56484277	0.13136891
0.14310637	0.31364118	0.12174614
0.12734686	0.81644725	0.13897081
0.15091513	0.05845659	0.63341625
0.12339249	0.56835726	0.63281492
0.65263023	0.31470046	0.62882444
0.61492218	0.81421881	0.64896806
0.6559897	0.05565416	0.11449816
0.63286115	0.57207683	0.1232995
0.14055049	0.3121999	0.12913015
0.11990002	0.82641432	0.13565118
0.15093348	0.0639227	0.63909744
0.13174089	0.56637261	0.62362106
0.64934047	0.31135828	0.63348268
0.63089474	0.81410523	0.64224242
0.63599681	0.05605058	0.1148048
0.63477002	0.57263341	0.12425551
0.14780791	0.31221944	0.12278052
0.12371658	0.82773761	0.13502512
0.15052115	0.06524333	0.64207053
0.13924272	0.56620287	0.6248655
0.65912359	0.31048181	0.64192977
0.63591989	0.81663521	0.63366754
0.64316942	0.05753261	0.12105634
0.63838557	0.56623605	0.13870816
0.15756656	0.31510488	0.11456628
0.13553874	0.82164364	0.13380277
0.14950318	0.06100241	0.64670386
0.13519064	0.56923305	0.63959092
0.66864758	0.31268117	0.64494839
0.62662554	0.8209558	0.63418988
0.65227173	0.05819049	0.12886665
0.6401144	0.56345666	0.14595904
0.15277537	0.3191481	0.11617287
0.13928427	0.82170661	0.13042619
0.14836977	0.05958824	0.65406359
0.12368079	0.57302772	0.64757654
0.66416698	0.31481645	0.64250702
0.61950657	0.82395137	0.64198823
0.64865362	0.05670619	0.1293474
0.63947795	0.56743065	0.14293906
0.13919101	0.32011904	0.12768152
0.13248316	0.82796678	0.12480621
0.1438831	0.06204078	0.656436
0.12507186	0.57176551	0.6401518
0.65334051	0.31707621	0.63920465
0.62726684	0.82360634	0.64793263
0.63596285	0.0559962	0.12019744
0.64043382	0.56716019	0.13321361
0.13791282	0.31749043	0.14101296
0.12566036	0.8308058	0.12300731
0.13442014	0.06378058	0.6463354
0.13777166	0.56760148	0.629699
0.64940041	0.31750858	0.64074082
0.63573455	0.82362307	0.63965781
0.63053164	0.05880237	0.11612329
0.63684699	0.56297396	0.12638264
0.14271159	0.31580005	0.14430546
0.12735573	0.82598855	0.12655891
0.12303686	0.06525794	0.63341771
0.14721087	0.5656835	0.62952462
0.65491573	0.31750393	0.64393333
0.63249531	0.82624402	0.62572723
0.6392748	0.06297332	0.12579853
0.63673052	0.56062293	0.13179394
0.14683425	0.31706905	0.14118433
0.13407591	0.81827739	0.12834327
0.12221615	0.06622102	0.62949951
0.14565183	0.56864097	0.63760638
0.65879663	0.31850389	0.64367159
0.62898404	0.83090429	0.62686531
0.64342482	0.0654205	0.14199552
0.64268885	0.56351167	0.13737185
0.14549577	0.32003278	0.1357753
0.1368757	0.81752405	0.12479864
0.12725763	0.06681402	0.63837854
0.13500476	0.57275173	0.63957029
0.64882252	0.32015016	0.64566945
0.63765558	0.83379619	0.63688169
0.63387112	0.06461046	0.15364405
0.64582699	0.56947032	0.13468366
0.13511277	0.32104959	0.13449709
0.12890886	0.8211086	0.11267464
0.12069281	0.06728891	0.64445709
0.13388057	0.57193045	0.63610456
0.63331869	0.32285353	0.64945913
0.65370351	0.83136049	0.6361534
0.6215126	0.06244015	0.15317029
0.64743079	0.5724244	0.13069166
0.13321468	0.31755647	0.13944257
0.12310092	0.82437855	0.10500732
0.11604639	0.06661441	0.63908984
0.14319835	0.57096915	0.63517791
0.6260514	0.32299968	0.64916047
0.66130571	0.82593649	0.62593043
0.61560883	0.06305577	0.14808496
0.645358	0.57096401	0.127115
0.13868479	0.31598899	0.13982213
0.12710454	0.82235817	0.11061646
0.11819177	0.06608866	0.63379413
0.14425827	0.57451825	0.63790006
0.62797643	0.31878227	0.64858844
0.65778056	0.82348321	0.62169295
0.62257046	0.06485091	0.15180193
0.64164428	0.56875619	0.12722442
0.13436461	0.31588274	0.13953792
0.13305926	0.81903255	0.11766483
0.12028637	0.06545228	0.63420093
0.13404736	0.57702991	0.64460397
0.6301977	0.31642586	0.64671467
0.65004359	0.82504834	0.62424774
0.63088413	0.06574841	0.16291319
0.6393423	0.56984571	0.12732834
0.12380582	0.31489932	0.14200668
0.13407999	0.81974359	0.11912863
0.12231066	0.06458191	0.63678711
0.12548912	0.57544366	0.64487216
0.62440215	0.31937689	0.64210007
0.64732672	0.82858915	0.62261777
0.62785918	0.06832635	0.1676473
0.63582341	0.57426869	0.12380829
0.11316753	0.31319847	0.14650758
0.12850547	0.82334871	0.1146988
0.11494161	0.06485023	0.63363054
0.13426394	0.57258738	0.63810548
0.61481073	0.32421876	0.63914375
0.65151977	0.8278918	0.61471391
0.61769282	0.07197548	0.16029288
0.63475186	0.57628504	0.120884
0.10859516	0.3114014	0.15229352
0.12400926	0.82375908	0.11119712
0.1051917	0.06466872	0.6319048
0.14976617	0.57345246	0.63618469
0.61337969	0.32372728	0.63788122
0.65514237	0.82227194	0.60540168
0.60758255	0.07570907	0.15415085
0.63390001	0.57409323	0.12384391
0.10906464	0.31199549	0.14999764
0.13038193	0.82086007	0.12050747
0.10477301	0.06355497	0.64150837
0.14813915	0.57788939	0.63515238
0.61812185	0.31726391	0.6386123
0.65229204	0.81858912	0.60376534
0.60266799	0.07527983	0.15740035
0.63221923	0.57224244	0.13541596
0.10498725	0.31550044	0.14359192
0.13574643	0.81781461	0.12522283
0.11078581	0.06251388	0.64822083
0.13014034	0.57878215	0.63656218
0.61509272	0.31865861	0.64556205
0.65294382	0.82038564	0.61320104
0.60412923	0.0701511	0.1596891
0.63512413	0.57405354	0.14034992
0.09619972	0.31916832	0.13687073
0.13088217	0.81819403	0.11909439
0.11863455	0.06173385	0.64824128
0.11574535	0.57510308	0.63775466
0.60318677	0.3244376	0.65406908
0.65467984	0.8236967	0.6234371
0.60256769	0.06568363	0.14922941
0.63476158	0.5780949	0.13035762
0.08637141	0.31947788	0.13178333
0.12347593	0.82261987	0.11571001
0.12127851	0.06601427	0.64268305
0.12349034	0.57065032	0.63135968
0.59590205	0.3216682	0.65539426
0.65091919	0.82363081	0.62508503
0.59679376	0.06546673	0.13730679
0.6329613	0.57956854	0.12223078
0.07750329	0.31557751	0.1296557
0.12137828	0.82765528	0.12028701
0.11851581	0.06972366	0.64236615
0.13999277	0.5683857	0.62907087
0.60869768	0.31503522	0.65221152
0.64168413	0.81990577	0.61993979
0.59518125	0.06757335	0.13394832
0.63197632	0.57347528	0.12361912
0.08019625	0.3170045	0.12931708
0.12867885	0.82416432	0.13017917
0.11537377	0.06751646	0.65468944
0.13934671	0.56934755	0.62982221
0.6258684	0.31063436	0.64983255
0.62687257	0.81889389	0.61544285
0.59939403	0.06921964	0.13612427
0.62595707	0.56651774	0.13104265
0.09151776	0.32117066	0.13238671
0.140154	0.81759721	0.13258126
0.10922595	0.06843361	0.6702723
0.12310605	0.56774942	0.62535318
0.62306736	0.31366548	0.65408788
0.62378265	0.82489551	0.61763984
0.61019463	0.06797717	0.13410644
0.62339727	0.56939033	0.13230098
0.09732946	0.32183906	0.13413173
0.14179839	0.81809255	0.12236638
0.10076484	0.06990474	0.67973734
0.11079358	0.56488104	0.61924698
0.60939258	0.31881726	0.65832899
0.63239358	0.83137291	0.62599283
0.61843307	0.06352167	0.12641719
0.62462753	0.57439799	0.12173948
0.09537787	0.32110813	0.12687079
0.13056047	0.82046426	0.11340534
0.09396426	0.07126782	0.68755904
0.11778897	0.56619202	0.61850821
0.6010501	0.32107567	0.65109735
0.62865121	0.82763004	0.63143586
0.61774177	0.05971924	0.11894662
0.62237713	0.56969919	0.10893408
0.08896907	0.31771913	0.11769357
0.11922667	0.82215551	0.10910539
0.08756856	0.06992838	0.6854313
0.13254623	0.56716557	0.62190533
0.60414946	0.32002789	0.64395973
0.61728582	0.82339371	0.63165092
0.61458426	0.05657345	0.11972467
0.61847883	0.56001773	0.10512987
0.09878483	0.31534386	0.12023874
0.12109343	0.82532048	0.11181521
0.09668953	0.06570143	0.67476499
0.11888763	0.56938556	0.61943343
0.61238422	0.3177033	0.64193362
0.61526047	0.82712528	0.63910694
0.61195296	0.05611694	0.12621257
0.61246231	0.55610261	0.11966082
0.10252002	0.3193668	0.1306188
0.12955998	0.82758271	0.12153116
0.10925983	0.06729514	0.66063425
0.09539341	0.57246206	0.60976238
0.61420432	0.31822379	0.63200924
0.63003787	0.83466724	0.64859196
0.60991792	0.05700374	0.13071553
0.60693577	0.55875483	0.13200714
0.09003028	0.3204414	0.13665517
0.12257445	0.82954192	0.12319619
0.11060178	0.07168	0.64316965
0.09210903	0.57237093	0.60172929
0.60396218	0.31958567	0.63356983
0.64176597	0.83869808	0.64992084
0.6110036	0.05440003	0.12638558
0.60389325	0.5636807	0.1210668
0.09287535	0.31733407	0.12770295
0.10844678	0.83047585	0.11806692
0.10667762	0.07167207	0.63750864
0.10774091	0.57584773	0.60151257
0.5997582	0.31909593	0.63440942
0.6296025	0.83646842	0.64446234
0.60828189	0.05360512	0.11552063
0.59872698	0.56542975	0.10350842
0.10512481	0.31471552	0.11647107
0.10966885	0.82740514	0.11063436
0.10335232	0.06760597	0.64119162
0.12182476	0.5780315	0.6086845
0.6083412	0.31631088	0.61869849
0.6186361	0.8296467	0.64315629
0.60462793	0.05646897	0.11335977
0.59695655	0.56352605	0.10026817
0.10910425	0.31398266	0.1165435
0.12272069	0.82388225	0.10712819
0.11043043	0.06133364	0.64435683
0.11592761	0.57806093	0.61729549
0.61788222	0.31288502	0.60636069
0.62487016	0.82670991	0.64967581
0.60463608	0.05753471	0.12364608
0.59913493	0.56098479	0.11029614
0.10092284	0.31658793	0.12449814
0.13025323	0.82384517	0.1140341
0.11828848	0.05803191	0.64152034
0.09694213	0.579142	0.61920069
0.61421607	0.31438366	0.60445066
0.63794509	0.82744842	0.65156495
0.60510224	0.05743612	0.13036265
0.59860189	0.56080657	0.1198083
0.09160992	0.31789285	0.12151151
0.12207135	0.82513884	0.12184348
0.11873046	0.06230965	0.62394276
0.08718961	0.57845221	0.62173784
0.60191613	0.32133495	0.60789068
0.64333321	0.82585014	0.64096828
0.60947662	0.05836278	0.12973164
0.59818941	0.56483564	0.10814735
0.09168682	0.31570068	0.10883211
0.10870849	0.82589452	0.12699008
0.1208638	0.06912085	0.6159755
0.08896327	0.57780094	0.63100119
0.6021357	0.32045322	0.60903393
0.63771501	0.82159635	0.63020214
0.61460746	0.06073878	0.12235454
0.59347088	0.56939895	0.0939877
0.10015777	0.31289384	0.11476239
0.10564758	0.82552273	0.1289674
0.12186398	0.07155961	0.62218235
0.09879663	0.57727759	0.64057012
0.61557779	0.31491137	0.59908832
0.63404644	0.81699798	0.63055047
0.61494974	0.06306807	0.11370034
0.58744734	0.57142176	0.09877229
0.11014654	0.31180148	0.12684207
0.11281598	0.82330373	0.12827255
0.12868979	0.06912541	0.62523972
0.10823075	0.57447713	0.6415407
0.62564774	0.31260256	0.587987
0.63831648	0.81652127	0.63945748
0.61263146	0.06442915	0.11360539
0.59007382	0.57064247	0.11309442
0.11492601	0.3153313	0.12234164
0.1151676	0.82043004	0.13429557
0.13337857	0.06647284	0.62334071
0.10445029	0.5715845	0.63159562
0.62267784	0.31297657	0.59065602
0.64488732	0.82080446	0.64447661
0.61109092	0.06725448	0.11380621
0.60315795	0.56917954	0.12188227
0.11127702	0.31791949	0.11014628
0.10757578	0.81734411	0.14242458
0.12428371	0.06737503	0.61644192
0.09761229	0.57148212	0.6255322
0.61490771	0.31701535	0.60306555
0.64710459	0.82125097	0.63411921
0.61429357	0.06973932	0.11122311
0.61453457	0.56978397	0.11542779
0.10403965	0.3154753	0.10477968
0.10290327	0.81734584	0.14407725
0.11787037	0.06830991	0.61493369
0.09689472	0.5713094	0.62820376
0.61797551	0.31826382	0.61126647
0.63487371	0.81934665	0.62458979
0.61925801	0.06903778	0.10722461
0.61749419	0.57106119	0.10535306
0.10233785	0.31354822	0.11000962
0.1089434	0.81914603	0.14304939
0.11977499	0.06643397	0.62523272
0.10911756	0.56862099	0.63439473
0.6285094	0.31682727	0.60763465
0.61630835	0.81811017	0.63346108
0.62389533	0.06645486	0.10314295
0.61701194	0.57180779	0.10498488
0.10926674	0.31305507	0.11800838
0.11881127	0.81809821	0.14190344
0.12430095	0.0625862	0.62935789
0.12463514	0.56548054	0.63893316
0.63504088	0.31800781	0.60175789
0.60864431	0.81936958	0.63752159
0.6293848	0.0650974	0.10790689
0.61802993	0.57235616	0.1124579
0.11514325	0.31401064	0.12238708
0.12154494	0.81687247	0.14454841
0.12733426	0.06041485	0.62522183
0.12098578	0.56512952	0.63365293
0.63506591	0.31614421	0.60789987
0.61511249	0.8250932	0.63337475
0.63176431	0.06725911	0.11179851
0.62169001	0.57113226	0.12096277
0.11295538	0.31760874	0.12078892
0.11705665	0.81812905	0.14895863
0.12251009	0.06185126	0.61806182
0.11051601	0.56625717	0.62818204
0.63075739	0.3148963	0.62164921
0.62671658	0.82781306	0.62682835
0.6353581	0.07094655	0.10894029
0.62582913	0.56919768	0.12201113
0.10949706	0.31911451	0.11716876
0.1162957	0.81969193	0.15157016
0.11674034	0.06305322	0.61518252
0.11427077	0.5670422	0.63347077
0.62933881	0.31463314	0.63156604
0.62369465	0.82623477	0.62054837
0.63560223	0.07024925	0.10770462
0.62429629	0.56868621	0.1142702
0.11840331	0.31670699	0.11808543
0.12236949	0.82243189	0.15029544
0.12037505	0.06116518	0.62174175
0.12540733	0.56478364	0.63825682
0.63177173	0.31317788	0.63082559
0.60756875	0.82384824	0.62440697
0.62828345	0.06504661	0.10850435
0.62542092	0.56935054	0.1154451
0.13308738	0.3136715	0.12105883
0.12702206	0.82496572	0.14673723
0.13129279	0.058503	0.62735008
0.13341841	0.56104356	0.6401387
0.63345451	0.31540413	0.62664953
0.60719836	0.82146802	0.63344996
0.62344927	0.06077426	0.10880899
0.6362024	0.57045312	0.1247724
0.13552905	0.31328134	0.11934413
0.12396704	0.82474218	0.14351131
0.1399759	0.05735118	0.62494773
0.13213549	0.56046741	0.63801415
0.63116178	0.31752228	0.63341011
0.62031142	0.82310837	0.63645264
0.63150452	0.06211625	0.10861731
0.64463512	0.57139282	0.13597693
0.13141888	0.31627313	0.12070443
0.11833273	0.82451862	0.13897329
0.13803723	0.0571961	0.62128518
0.13103521	0.56313647	0.63308028
0.62449422	0.31667194	0.64597543
0.6224889	0.82889676	0.63414374
0.64520284	0.06602596	0.10983009
0.6482184	0.57187556	0.13993929
0.13537183	0.31885812	0.12570027
0.12387346	0.82444928	0.13329528
0.13010977	0.05604431	0.62014081
0.13764807	0.56675938	0.63576072
0.62443966	0.31570926	0.64777279
0.61352623	0.83026843	0.62904794
0.65562544	0.06653839	0.11612057
0.64662553	0.57127145	0.13356245
0.14440953	0.31925598	0.13144539
0.13744773	0.82356762	0.13035726
0.12864387	0.05589324	0.62423237
0.14272592	0.56749612	0.64062916
0.63554235	0.31440068	0.63396687
0.60965231	0.82602956	0.62658081
0.65371816	0.06330486	0.12331827
0.6421146	0.57069436	0.14007375
0.1471548	0.31614714	0.13380603
0.14069362	0.82323612	0.12871072
0.12932288	0.05686346	0.62531062
0.14215599	0.56435674	0.6396509
0.64640202	0.31484282	0.62051862
0.62373657	0.82124373	0.62658144
0.64837612	0.0616935	0.12815047
0.64854184	0.57086096	0.15508204
0.14028653	0.31218063	0.12663192
0.13314095	0.82332635	0.12409902
0.13413656	0.0555137	0.61940278
0.13615207	0.56297759	0.63373146
0.6522568	0.31649462	0.62235953
0.63920471	0.82327361	0.62756336
0.65147494	0.06431368	0.12742585
0.65803556	0.57036734	0.15782928
0.13378703	0.31371095	0.11800361
0.1242895	0.82362399	0.11891424
0.13450707	0.05499698	0.61479278
0.13292161	0.56596822	0.6277907
0.64261863	0.31772383	0.63520276
0.64219254	0.82608946	0.63057545
0.65425208	0.0671252	0.12746523
0.66412712	0.56941192	0.1514149
0.13911826	0.3160748	0.11553379
0.12830048	0.82433179	0.11299135
0.13211346	0.05710785	0.61984005
0.14269842	0.56970655	0.63859708
0.62792364	0.31939354	0.644644
0.63551673	0.82052043	0.63580822
0.65439978	0.064767	0.13126712
0.66617715	0.56876913	0.14659401
0.15369599	0.31376546	0.12672943
0.13718128	0.82410343	0.11419791
0.14116476	0.05928047	0.62996694
0.15369743	0.57173899	0.65009451
0.63703509	0.32067908	0.64496697
0.62987386	0.81389206	0.64378585
0.65623001	0.0569377	0.13854331
0.66161658	0.57053503	0.14645475
0.16615031	0.31152807	0.13828192
0.13484446	0.82212913	0.11745512
0.14890645	0.0617891	0.63115901
0.15380704	0.56832575	0.64769381
0.65280999	0.32040043	0.63720485
0.6363631	0.81279942	0.64797701
0.66369485	0.05377426	0.14427681
0.65985116	0.57424567	0.14818473
0.17064851	0.31364477	0.12995275
0.12832482	0.81916014	0.11069554
0.1474017	0.06395308	0.62618279
0.15141318	0.56647121	0.64038837
0.6511384	0.31739008	0.63451336
0.65094174	0.81551588	0.64165238
0.68053639	0.05954278	0.14314902
0.66027767	0.57113288	0.14765397
0.17128972	0.32064484	0.13593174
0.12760981	0.81647785	0.10459804
0.14183619	0.0652011	0.62887709
0.15244108	0.57129544	0.62742604
0.63952179	0.3106522	0.63996684
0.66338046	0.8165734	0.64423854
0.69124884	0.06617209	0.14078738
0.66112965	0.56282157	0.14607633
0.17371894	0.32374444	0.14216116
0.13728715	0.81550201	0.11391982
0.13576476	0.0656875	0.63055564
0.15304648	0.57516893	0.62625833
0.6344417	0.31042508	0.64533706
0.6643562	0.813985	0.65550203
0.68891928	0.0680973	0.14368131
0.66874956	0.55855152	0.14931623
0.17785358	0.31707895	0.13956474
0.15260995	0.81688084	0.12480603
0.13958388	0.06506176	0.62574505
0.14658481	0.5711023	0.63492273
0.64834371	0.31259257	0.64901699
0.65434754	0.80983268	0.64842866
0.68203909	0.06528369	0.14635129
0.67224941	0.56198032	0.15379943
0.18180774	0.31011968	0.13639822
0.15813357	0.81946947	0.11413914
0.14578532	0.06527936	0.62263468
0.14172178	0.56334278	0.64228148
0.66687987	0.31247648	0.65739808
0.64641388	0.80825119	0.63698659
0.6761527	0.06172159	0.15054714
0.67674545	0.56512534	0.15710995
0.18416406	0.31039369	0.13615865
0.15428845	0.81879561	0.09866608
0.14746024	0.06211464	0.62402934
0.14486471	0.56111819	0.64719691
0.67263684	0.30730484	0.6668656
0.65425093	0.81091872	0.63927045
0.67011726	0.06182334	0.15375842
0.6823749	0.56221962	0.15594096
0.180396	0.31626914	0.14285106
0.15225097	0.81646936	0.10351565
0.14911739	0.05881577	0.63574439
0.14894323	0.56648192	0.64839513
0.66663948	0.30018297	0.67610376
0.66431917	0.81613158	0.64387688
0.66434679	0.06355374	0.15179685
0.6779053	0.56274432	0.15558675
0.17337969	0.31919981	0.15025943
0.15503303	0.81799906	0.11853115
0.14978448	0.05936795	0.6488286
0.14822159	0.57186449	0.64613023
0.65880056	0.29970801	0.67798093
0.65434211	0.81943842	0.63719149
0.66600511	0.06137254	0.15182813
0.6713344	0.56835718	0.15880405
0.17335922	0.31342149	0.15296553
0.16208762	0.82110513	0.12306204
0.15223121	0.06191508	0.64806742
0.14273747	0.56916149	0.64478456
0.65893586	0.30369121	0.67446561
0.63422432	0.8188334	0.62497259
0.67151137	0.05748988	0.14396678
0.66370114	0.5692641	0.15883459
0.17686245	0.30993129	0.14748486
0.16296541	0.82235526	0.11038084
0.15231775	0.0646078	0.6443644
0.14109896	0.56008083	0.64254276
0.66771682	0.30537075	0.67149869
0.6355525	0.81581233	0.62172802
0.67522643	0.0564269	0.13574555
0.66061308	0.56536653	0.1533542
0.17730649	0.31412099	0.13430626
0.14868435	0.82142613	0.09631138
0.14948595	0.06381492	0.6488857
0.14774028	0.55603568	0.64100113
0.67858371	0.3029979	0.67052678
0.64240795	0.8115076	0.62912667
0.67666836	0.05707768	0.1420252
0.66797438	0.56160697	0.14136213
0.1765658	0.31868006	0.12923696
0.1418349	0.81950136	0.09697677
0.14462899	0.0592478	0.6562858
0.15241136	0.56012165	0.64011768
0.67809112	0.30094215	0.67306475
0.63834578	0.80885166	0.63504047
0.66745215	0.05796956	0.14995931
0.67150564	0.56064672	0.13118195
0.17074005	0.3180084	0.13663496
0.14521192	0.81953671	0.10821097
0.13942748	0.05841412	0.65528763
0.15048378	0.56432647	0.63711145
0.66461349	0.30700015	0.67811092
0.62774891	0.80995391	0.63718393
0.65514161	0.05545541	0.15221997
0.66461134	0.56314191	0.13075319
0.16366491	0.31331862	0.14501563
0.14807827	0.8236536	0.11343281
0.13877452	0.05921109	0.64503234
0.14649876	0.56454987	0.63438516
0.6562261	0.31436629	0.67532561
0.6261494	0.81332808	0.63562595
0.65118917	0.05234814	0.15277013
0.65546225	0.5666985	0.13935971
0.16106011	0.31113221	0.14666492
0.14793451	0.82763334	0.10801293
0.14440541	0.0558846	0.6371956
0.14496305	0.56150018	0.63014604
0.66174106	0.31314651	0.6683273
0.63531397	0.81698602	0.63767887
0.65155326	0.05318531	0.15252318
0.6504649	0.56719667	0.14111879
0.16063156	0.31529409	0.13834195
0.13983045	0.82530284	0.10358541
0.14889178	0.05515999	0.6380793
0.14633407	0.56041603	0.63008911
0.67141268	0.3089614	0.66470105
0.64480759	0.81676591	0.64563779
0.64730607	0.05454093	0.15343095
0.64991068	0.56528308	0.1321647
0.15846032	0.31979853	0.1314903
0.13541726	0.8207478	0.11002959
0.14945902	0.05874501	0.64109508
0.14436233	0.56465194	0.63239836
0.66620029	0.30777554	0.65894794
0.64101743	0.81565474	0.64388324
0.64166796	0.05718325	0.15337698
0.64729691	0.56338095	0.12524186
0.15174897	0.31862533	0.14523435
0.137816	0.81928448	0.11893112
0.14342415	0.06190502	0.63616599
0.13896484	0.56967675	0.62976374
0.65219834	0.31139354	0.64829139
0.6317634	0.81857747	0.62971535
0.63723099	0.06035591	0.14799689
0.64117761	0.56334489	0.12967124
0.14419256	0.31266526	0.15574815
0.13607675	0.82291289	0.12144132
0.13647543	0.06089781	0.62781546
0.1397511	0.57163079	0.62872548
0.65360662	0.31835221	0.6373141
0.63031758	0.82015657	0.62121066
0.63674929	0.06166625	0.14377956
0.63888793	0.5666686	0.13339452
0.14321356	0.31030825	0.14883967
0.13261231	0.82705821	0.11542836
0.13807389	0.05819933	0.62687397
0.14640295	0.5700913	0.62815517
0.66152646	0.32102275	0.63264325
0.63783582	0.82203408	0.62181967
0.63580137	0.06293416	0.14432982
0.63828229	0.56824493	0.12661539
0.14524836	0.31201582	0.13676566
0.12975928	0.82721173	0.10883383
0.13807861	0.05824055	0.63348951
0.14945214	0.56902812	0.6246508
0.66134033	0.31791854	0.63739924
0.64173929	0.82245327	0.63038413
0.63005883	0.06324867	0.1437646
0.63363712	0.56689168	0.12283099
0.14411184	0.31464398	0.13406362
0.12905538	0.82223787	0.11349535
0.13147034	0.06086022	0.64195933
0.14351482	0.57201272	0.62207974
0.65338668	0.31467741	0.63974136
0.63952252	0.82097417	0.63456066
0.62350283	0.06241141	0.14051508
0.62909005	0.56587363	0.13019975
0.13662018	0.31549006	0.14014445
0.13178231	0.81566815	0.12421115
0.12900556	0.06527208	0.64491541
0.13084302	0.57403483	0.62257716
0.64598661	0.31574485	0.63404424
0.63666694	0.82460398	0.62711185
0.61917818	0.06306406	0.13084807
0.62737528	0.56605814	0.13916215
0.12143163	0.31327085	0.13959745
0.12725795	0.81416148	0.12723078
0.13140802	0.0680354	0.63841482
0.12120066	0.5734178	0.6271103
0.64330259	0.32244792	0.62974627
0.63850036	0.82791764	0.62023665
0.62330777	0.06464883	0.12440427
0.62658177	0.56811203	0.13756358
0.1099078	0.31451777	0.12877117
0.11725553	0.8187552	0.12296867
0.13712246	0.06681947	0.63417016
0.12072939	0.57232849	0.63027131
0.64111313	0.32424041	0.630218
0.64264172	0.82923481	0.62227431
0.63343277	0.06588133	0.12212618
0.63029068	0.56868968	0.1249192
0.10879784	0.31998701	0.1189168
0.10857111	0.81636505	0.11947632
0.13746819	0.06704278	0.64060515
0.12553082	0.57070885	0.62621402
0.63456174	0.31982016	0.63117076
0.64278509	0.82977045	0.63050632
0.62889017	0.06503871	0.11363562
0.6370227	0.56660951	0.1177262
0.10740333	0.31919985	0.1164152
0.10819561	0.81299404	0.12302487
0.12962847	0.07108718	0.64809136
0.12778713	0.57399343	0.62389116
0.6249659	0.31992739	0.62723458
0.63152011	0.82915197	0.63345225
0.62061902	0.0631854	0.10937757
0.63457972	0.56900162	0.11779078
0.09662811	0.31405959	0.12250325
0.1178171	0.81445906	0.12799646
0.11978925	0.07441485	0.64427182
0.11963137	0.5767421	0.62911414
0.61629453	0.32364998	0.61608635
0.6171343	0.83046469	0.62695326
0.62019069	0.06567371	0.10917093
0.62737086	0.57300201	0.12193745
0.08352075	0.31080874	0.12288972
0.1272871	0.81755269	0.12996907
0.1157897	0.07462747	0.63198981
0.11061335	0.57143957	0.64064706
0.61089153	0.32954612	0.60817453
0.61394948	0.83213291	0.62860346
0.62374872	0.06900405	0.10922656
0.62142868	0.57415118	0.12094152
0.08019516	0.31304408	0.11168516
0.1245208	0.82178746	0.13308403
0.11686899	0.07045365	0.63276005
0.11310038	0.56837763	0.64825972
0.6072352	0.33145941	0.61120751
0.62199037	0.83122468	0.63101861
0.63340491	0.07037782	0.11200188
0.61164852	0.57305712	0.11036278
0.09092567	0.31795642	0.10393848
0.11307973	0.82260546	0.13906258
0.11054633	0.06740084	0.64965307
0.12108559	0.57068635	0.64033678
0.60146394	0.32343717	0.61869628
0.62726818	0.83050759	0.62832482
0.62724559	0.07120187	0.11405476
0.61004335	0.57249811	0.10255242
0.0974302	0.31764776	0.10272158
0.10848311	0.82135599	0.15009045
0.09829442	0.06944373	0.64935272
0.12072174	0.5747971	0.63076366
0.59331299	0.32234508	0.62110511
0.62586853	0.83076076	0.63494064
0.61468802	0.07154756	0.11284006
0.61105266	0.57580783	0.1120917
0.08216885	0.31678235	0.1018029
0.1139845	0.82188261	0.1620524
0.0913021	0.07275209	0.63599592
0.1066288	0.57744037	0.63030383
0.58680132	0.32863913	0.61639728
0.62492144	0.8332536	0.6361338
0.61265208	0.07364505	0.1099767
0.60689174	0.57878126	0.12263721
0.06755775	0.31861054	0.097239
0.11293186	0.82524438	0.16535573
0.09064606	0.07098755	0.62667027
0.09813269	0.57466524	0.63705871
0.58268379	0.32930178	0.60277211
0.62278782	0.83625004	0.63437513
0.61392349	0.07510839	0.10777691
0.60764491	0.57782336	0.11817266
0.0691073	0.31968379	0.08653871
0.10180558	0.83057145	0.15875442
0.09632998	0.06386825	0.62921022
0.11133525	0.57169757	0.6463135
0.58167076	0.32580417	0.59727592
0.62196158	0.83587487	0.63284751
0.61143525	0.07141407	0.10562495
0.60299457	0.57715045	0.09830577
0.0766645	0.32044404	0.08619502
0.09624976	0.83108353	0.14867944
0.09879845	0.06287623	0.63654669
0.12008349	0.56988582	0.64045475
0.57474531	0.32101977	0.60379744
0.62499789	0.83446971	0.62989331
0.59170975	0.06723795	0.10369203
0.59277246	0.57891053	0.08570786
0.082226	0.31703709	0.10005871
0.10256637	0.82977105	0.14593477
0.09191896	0.06712342	0.63027257
0.11181186	0.5697544	0.62784861
0.56685133	0.32151793	0.60886628
0.6257824	0.83419426	0.62717928
0.57275477	0.06838199	0.10270618
0.58431861	0.58377107	0.09394531
0.07954156	0.31563754	0.11190972
0.11237924	0.82937701	0.14813887
0.08328311	0.06510874	0.61457726
0.09420132	0.57354219	0.63114385
0.57123808	0.32546488	0.60546774
0.62351027	0.83323726	0.62224448
0.56905003	0.0744033	0.10486923
0.57666336	0.58670417	0.11073407
0.07370024	0.32564418	0.11391978
0.11371038	0.82984821	0.15165336
0.08308841	0.06047552	0.60397047
0.08441824	0.57720539	0.6410536
0.57854636	0.32488452	0.59519634
0.62300289	0.83139274	0.62039286
0.57106692	0.07411456	0.10284129
0.5752947	0.58283592	0.10982633
0.07396507	0.32688729	0.10997911
0.10316774	0.83380582	0.15275145
0.09456314	0.06006634	0.59744166
0.09779415	0.57624542	0.6451686
0.57750379	0.31988611	0.59132199
0.6249063	0.82783772	0.62319335
0.57228452	0.06581968	0.10357899
0.57410671	0.57690048	0.09444244
0.07792369	0.3192217	0.10609126
0.10025213	0.8352931	0.1451796
0.09698755	0.06420418	0.59983165
0.10325893	0.57149783	0.63411237
0.57619198	0.31541869	0.59674556
0.62751165	0.82433668	0.62416241
0.56580603	0.06210077	0.11156807
0.57366328	0.57400296	0.09473384
0.08312725	0.3160377	0.1088094
0.1067103	0.83159601	0.13819243
0.0870423	0.06948444	0.6013814
0.08439213	0.56672053	0.61940176
0.58142874	0.31661672	0.59552557
0.63011979	0.82279097	0.62802439
0.55522276	0.06619166	0.11129762
0.58519846	0.57402801	0.10904549
0.08176862	0.31914829	0.11051625
0.11100439	0.8279694	0.13861992
0.08003577	0.0686558	0.59748897
0.07147736	0.56956844	0.6233377
0.59107774	0.32356063	0.58823377
0.63071767	0.82149005	0.63365838
0.56021574	0.07075045	0.10595152
0.58875735	0.57301514	0.110255
0.07023689	0.3293495	0.11434949
0.10569856	0.82568553	0.13798858
0.08972921	0.06431549	0.60093879
0.07359973	0.57637	0.63282226
0.59273987	0.32734713	0.58097891
0.63072876	0.82200935	0.63586735
0.57704273	0.06800237	0.10188308
0.58392313	0.5690492	0.10070799
0.06460086	0.33303138	0.11925155
0.09465714	0.82718735	0.13396141
0.09447802	0.06192791	0.60378006
0.08352539	0.57720003	0.63377297
0.58760319	0.32474763	0.58383448
0.63132983	0.82244248	0.63578894
0.59321579	0.06007816	0.10040598
0.58320381	0.56703426	0.08874925
0.07127068	0.32414194	0.11757489
0.0945347	0.82969418	0.12489142
0.09248948	0.06512171	0.60793272
0.08803883	0.57177357	0.62368457
0.58827564	0.31495853	0.59399975
0.63109881	0.8209869	0.63307824
0.59788514	0.05911842	0.09560695
0.58612676	0.56745762	0.08619931
0.08300925	0.31557025	0.12095706
0.10803236	0.82857979	0.12223875
0.09173816	0.07091631	0.61457746
0.08114881	0.56773885	0.61385303
0.59593846	0.30650203	0.59615174
0.630207	0.81779051	0.63297475
0.58861813	0.06664371	0.08524289
0.59489839	0.56814087	0.09452053
0.08014241	0.31598858	0.12354781
0.11921165	0.82630852	0.1363048
0.09594744	0.07328973	0.61411494
0.07237331	0.5718481	0.62432764
0.60819953	0.30868454	0.59258831
0.628388	0.81495904	0.63973719
0.58752337	0.07195096	0.08039425
0.6028603	0.56709257	0.10618763
0.06781347	0.32219106	0.1175398
0.11920147	0.82250904	0.14719371
0.10237292	0.06748502	0.61648149
0.07363262	0.57545012	0.63125342
0.61506061	0.31484997	0.59397313
0.62734226	0.81412548	0.6394485
0.6009085	0.07339104	0.08678785
0.60348305	0.564395	0.11105781
0.06519741	0.32403291	0.11336178
0.10696301	0.82170268	0.14815743
0.10268739	0.05921243	0.62080618
0.08591455	0.57087889	0.620077
0.61103559	0.31374428	0.60046236
0.62934768	0.81526715	0.63175953
0.6117282	0.06950709	0.09764951
0.59986816	0.56585856	0.10675392
0.07529683	0.31698522	0.11052193
0.09978862	0.82362253	0.14446633
0.09717637	0.05486049	0.62200001
0.10246503	0.56702221	0.60802674
0.61030526	0.30778047	0.60798676
0.63250991	0.81782877	0.62813571
0.61542689	0.06230894	0.10023134
0.59949952	0.56819617	0.10055826
0.09405178	0.30911792	0.11073532
0.10457299	0.82230168	0.14153278
0.09203645	0.05891571	0.63240802
0.11252564	0.56709162	0.60688413
0.61752182	0.30728477	0.6099238
0.63418386	0.81995303	0.63242129
0.61361758	0.05701556	0.09249451
0.60743817	0.56619481	0.10149719
0.10980239	0.3064792	0.11338067
0.11401255	0.8192959	0.14755428
0.10294197	0.06461386	0.63983049
0.1109453	0.56931481	0.61737637
0.62361721	0.31400807	0.60812548
0.63055845	0.8203913	0.63407412
0.62295125	0.05703941	0.08861123
0.61365269	0.56322301	0.11086735
0.11017772	0.31148903	0.11392131
0.11434547	0.81821692	0.14921938
0.12337012	0.06436062	0.63891953
0.10494559	0.56995177	0.62522823
0.6250018	0.31761204	0.60996689
0.62423476	0.82124014	0.62745955
0.63747027	0.05996553	0.09942477
0.61641829	0.56372231	0.11448258
0.10878898	0.31486559	0.11435702
0.10839505	0.82063255	0.13491462
0.13668961	0.06103086	0.63668586
0.10936305	0.56460856	0.62470144
0.62059466	0.31275865	0.61491366
0.62080827	0.82146269	0.62204351
0.63805431	0.05972752	0.11183185
0.62022748	0.56928635	0.10948438
0.11502335	0.30963081	0.11224205
0.10665198	0.82456053	0.12110668
0.13782097	0.0591704	0.63734896
0.12588733	0.56028885	0.62458704
0.62013112	0.30839518	0.62028705
0.6198655	0.82024989	0.62503972
0.63028321	0.05611557	0.11521816
0.62324501	0.5738032	0.10687161
0.12569024	0.30326522	0.1077897
0.11210692	0.82454963	0.12155839
0.1321877	0.05900177	0.64189535
0.13588015	0.56120732	0.62884324
0.62820348	0.31246596	0.61796308
0.62376202	0.81824103	0.63048198
0.62547757	0.05735963	0.11170626
0.63095554	0.57340343	0.11652785
0.13196131	0.30474621	0.11022406
0.12249563	0.81860377	0.13245012
0.13478584	0.05885311	0.64172523
0.1307356	0.56384722	0.63428922
0.63768916	0.319919	0.61131265
0.62756044	0.81659986	0.63197959
0.63107238	0.06114385	0.11424392
0.63600589	0.56854303	0.1274222
0.13128879	0.31337135	0.1194936
0.13007404	0.81336192	0.13746238
0.14850431	0.05515887	0.63549402
0.12967986	0.56562128	0.63498798
0.63909471	0.32201013	0.61907962
0.62717017	0.81803367	0.62727047
0.64790071	0.06262211	0.12925665
0.6309146	0.56444647	0.12584946
0.13745851	0.31914108	0.12950359
0.13067853	0.81260893	0.12910213
0.15719822	0.05163401	0.63203749
0.14284559	0.56328213	0.63119504
0.63210221	0.31847791	0.62792234
0.62898178	0.82229803	0.62233237
0.65814868	0.06224231	0.14307984
0.629143	0.566152	0.12194675
0.15254976	0.31356805	0.13094703
0.12932631	0.81538969	0.11808733
0.15239391	0.05380323	0.6346405
0.15361466	0.56137604	0.63344051
0.63831995	0.31518148	0.62572427
0.63185043	0.82516332	0.62574055
0.65701874	0.06298847	0.14126396
0.63564983	0.57079995	0.12551158
0.15928066	0.30885369	0.12197131
0.1306679	0.81792326	0.11395022
0.14575406	0.05939104	0.64231726
0.14861148	0.56360654	0.63794218
0.65575538	0.3149326	0.62263163
0.63177946	0.82450663	0.63467237
0.65423872	0.06412566	0.13391767
0.6500744	0.57069855	0.13648685
0.15841172	0.31145213	0.12067746
0.13692352	0.81936619	0.11399089
0.1506779	0.06289709	0.64557551
0.14236974	0.56598679	0.6416699
0.66675199	0.3164926	0.62684217
0.63072817	0.82213943	0.64053504
0.65955581	0.06311422	0.13708033
0.66375129	0.5663356	0.14270373
0.1542607	0.31675313	0.13251275
0.14522502	0.82077089	0.1067279
0.15975048	0.06169078	0.64092222
0.14605267	0.56683301	0.64801287
0.66791733	0.31711075	0.64034559
0.62788267	0.82283598	0.63841182
0.67419302	0.0620864	0.15507144
0.66731622	0.56251562	0.13684848
0.15333064	0.32045254	0.14272194
0.14882899	0.82063679	0.09413883
0.15615264	0.05958956	0.63660435
0.15773853	0.56512792	0.64795746
0.6655073	0.31574168	0.65286525
0.6276053	0.82421176	0.63551285
0.68445798	0.06300737	0.16501906
0.67191236	0.56497798	0.13518238
0.16015377	0.31702158	0.14441441
0.14889612	0.82036705	0.09726112
0.14552595	0.05841627	0.63627606
0.16523271	0.56383043	0.64414766
0.66907639	0.31402025	0.65624998
0.63175867	0.82264994	0.64097132
0.67953657	0.06392546	0.16082164
0.6783842	0.5700626	0.14795786
0.17254775	0.31423366	0.14352589
0.14988641	0.81997681	0.11164432
0.14319165	0.05777328	0.63826844
0.15548167	0.5661675	0.6412594
0.67633225	0.3126922	0.65823539
0.63620259	0.82135387	0.64284148
0.67279797	0.06413455	0.1630791
0.68453574	0.56746741	0.16522127
0.18345491	0.31799175	0.1481471
0.15390691	0.81882418	0.1203281
0.15361408	0.0587742	0.64034408
0.13922409	0.56747038	0.63732022
0.67179418	0.31415139	0.66419606
0.64155324	0.82040238	0.6368995
0.67852987	0.06332474	0.17273166
0.68862286	0.56569235	0.1710471
0.18928082	0.31908489	0.15432124
0.15828574	0.81948901	0.11643641
0.16811537	0.05940976	0.636428
0.13621431	0.56549517	0.63755072
0.66334576	0.31790837	0.67763966
0.6441269	0.82021056	0.63110171
0.69572903	0.06400818	0.17666198
0.68619932	0.56772861	0.16035333
0.18986349	0.31434397	0.15282368
0.1569953	0.82092745	0.10664564
0.1648294	0.06010082	0.63299206
0.14837075	0.56431129	0.63655266
0.6639585	0.31776304	0.68891557
0.64495698	0.82118999	0.6306625
0.69721704	0.06582274	0.16800769
0.68622711	0.56693389	0.15014335
0.18805068	0.30761863	0.14712879
0.15351295	0.82192908	0.10371199
0.15006898	0.0635551	0.63532449
0.16535984	0.56666472	0.63590165
0.67469177	0.3150921	0.68935943
0.64978367	0.82055885	0.64092412
0.67899151	0.06394127	0.14731491
0.69581925	0.56721217	0.15418434
0.18868356	0.30593594	0.14174182
0.15119083	0.82224317	0.10925782
0.1459299	0.06702683	0.63985785
0.16859234	0.57013625	0.63565077
0.68812996	0.31335559	0.68881031
0.65628002	0.81850688	0.64666156
0.67066741	0.05892334	0.14080205
0.70571662	0.56589341	0.16610201
0.19382911	0.31511408	0.14357765
0.14932685	0.82197826	0.11176536
0.15418583	0.06706428	0.6405786
0.15920087	0.56992632	0.63130965
0.68904115	0.31317763	0.69220853
0.6619637	0.81734984	0.63594362
0.67404314	0.0548762	0.15035694
0.70880981	0.56441304	0.17250596
0.19126313	0.3247065	0.15340021
0.15127434	0.82225454	0.10524384
0.16237162	0.0653565	0.63926415
0.1524258	0.56728913	0.63354287
0.67886852	0.31671785	0.70261841
0.6623167	0.81746256	0.62454975
0.67151968	0.05768464	0.17010941
0.69248288	0.56529924	0.16778699
0.18285149	0.32110574	0.1561178
0.15641076	0.8205512	0.09788718
0.16013003	0.06270435	0.64324912
0.15855294	0.56589448	0.63964027
0.66686775	0.31620747	0.71072647
0.6556462	0.81883399	0.62112465
0.66327255	0.06333512	0.18513925
0.67812014	0.56637181	0.16370124
0.18213652	0.3093119	0.15273043
0.15685146	0.81868975	0.09833458
0.15058727	0.06334062	0.64880232
0.17155318	0.56475893	0.63874199
0.65629693	0.31120545	0.69858978
0.65711612	0.82050858	0.62624449
0.65253922	0.06217271	0.18439855
0.68534537	0.56759389	0.17237269
0.18692419	0.30494175	0.14889667
0.15239504	0.81915475	0.1085246
0.14263564	0.0673286	0.65077918
0.16824473	0.5652535	0.63199536
0.66440484	0.30952047	0.68798446
0.66306179	0.8210211	0.63239322
0.6556004	0.05944594	0.17671178
0.69613338	0.56869812	0.17886266
0.1901462	0.3125518	0.14516813
0.14810823	0.82132107	0.11829054
0.14199273	0.06766902	0.650727
0.16073741	0.56708641	0.62403332
0.68130623	0.31403604	0.68919643
0.66128221	0.82058855	0.62657013
0.66355287	0.06186576	0.16790425
0.68890495	0.56960979	0.16547042
0.18599326	0.31910949	0.14290041
0.14746266	0.82650876	0.11638055
0.14573716	0.06534445	0.64287985
0.16499064	0.56926874	0.62466697
0.68180723	0.31705384	0.6950091
0.65298703	0.82318895	0.62225547
0.66435914	0.06796145	0.16345366
0.67030287	0.57191089	0.14138432
0.174554	0.31624386	0.14312617
0.14876683	0.82908259	0.10454663
0.14189963	0.06159269	0.63500203
0.17198767	0.57315541	0.63485615
0.66778352	0.31610895	0.6966803
0.64839497	0.82545938	0.63143688
0.65444991	0.06962238	0.16696207
0.66028833	0.57202488	0.12936951
0.16521797	0.31076191	0.14585804
0.15061397	0.82624339	0.10174456
0.12966771	0.06295119	0.63722479
0.17718547	0.57600663	0.63728307
0.65339082	0.31147456	0.6834542
0.65037639	0.82329509	0.64063983
0.64574201	0.06416902	0.16802741
0.66496712	0.57144031	0.13585352
0.16060771	0.31137532	0.14802629
0.1528454	0.82280575	0.10332555
0.11832516	0.06752743	0.64761189
0.17087718	0.57499088	0.63285368
0.6497641	0.30880891	0.67502039
0.64728943	0.82084395	0.64130811
0.64527481	0.05890358	0.16106275
0.66280988	0.57381988	0.14172941
0.16008636	0.31931714	0.14640046
0.15227463	0.82101498	0.09637425
0.11850619	0.06899204	0.65521596
0.15938596	0.57190072	0.62473278
0.65906346	0.31291048	0.67812827
0.63648061	0.82030374	0.63014154
0.64840456	0.05930934	0.16242304
0.65012705	0.57530484	0.133724
0.16189895	0.32556171	0.14045496
0.1454047	0.82328315	0.09370815
0.13015738	0.06793618	0.6517282
0.15733472	0.57084758	0.62309578
0.66026308	0.31820112	0.67141673
0.62724386	0.82208554	0.61993362
0.64630745	0.06375936	0.16292885
0.63877708	0.57491593	0.12822793
0.15707509	0.32164541	0.13498062
0.13500151	0.82754574	0.10202326
0.1407672	0.06591705	0.64185082
0.15657484	0.57260467	0.63189329
0.65139494	0.32082888	0.66217419
0.62928789	0.82170434	0.62434891
0.64012456	0.06810416	0.15634333
0.63928314	0.57308562	0.13868723
0.15095317	0.31936738	0.14046856
0.12823032	0.82658323	0.11541059
0.13381494	0.06411704	0.64036978
0.14616047	0.57528526	0.63919748
0.64926243	0.32097787	0.65174093
0.63819925	0.81851267	0.63760056
0.6342935	0.06783662	0.14536202
0.64628081	0.56763657	0.14705913
0.14384853	0.32335098	0.14608222
0.13051712	0.82284957	0.12306022
0.12349473	0.06417954	0.64654905
0.13257397	0.57433276	0.6389275
0.65787309	0.31952061	0.643034
0.63801164	0.81859209	0.64582662
0.63425027	0.06370067	0.13367585
0.64543252	0.56669555	0.13846967
0.13449993	0.328441	0.13712214
0.13736812	0.82042701	0.11919718
0.12926924	0.06417076	0.65078252
0.12647294	0.57054604	0.63530223
0.66490278	0.32025877	0.64253934
0.62886176	0.8225082	0.63636737
0.64125442	0.06155123	0.13132262
0.63506729	0.56835878	0.11873068
0.13122652	0.32910174	0.13282875
0.13445602	0.82349874	0.11539056
0.14103631	0.06405676	0.63996864
0.12933984	0.56730374	0.63464593
0.6533328	0.32074423	0.63806833
0.62454461	0.82469411	0.626086
0.64308519	0.06216592	0.13205376
0.62403622	0.56824512	0.10957742
0.12663147	0.32343174	0.14061873
0.12487222	0.82809875	0.11736065
0.14150929	0.06675302	0.625149
0.12807115	0.56662057	0.63928848
0.6365226	0.31633063	0.62582211
0.63480962	0.82241607	0.63342756
0.63041709	0.06452872	0.12317891
0.61864637	0.56498541	0.11443569
0.12002717	0.31896159	0.14548531
0.12164326	0.82516968	0.12188225
0.12731038	0.07061169	0.62364262
0.11574107	0.57078746	0.63946845
0.62738537	0.31356457	0.61501315
0.64455438	0.81935731	0.63869507
0.61522895	0.06591121	0.11610401
0.62402531	0.56297671	0.12422928
0.11510968	0.32007225	0.14268106
0.12535296	0.82248067	0.12616199
0.11760455	0.07294308	0.63106129
0.10208957	0.57604843	0.63731491
0.62770008	0.31404547	0.6120465
0.63693993	0.82141206	0.63710834
0.61038882	0.06173756	0.11943483
0.62993124	0.56585686	0.13289471
0.10883387	0.32099476	0.13408767
0.13006541	0.8239973	0.1286258
0.12283408	0.07242289	0.63362003
0.10216032	0.57479667	0.63589295
0.63149914	0.31667944	0.61679351
0.62853721	0.82433139	0.6298127
0.61024008	0.05844297	0.12544192
0.62855069	0.56749405	0.13428704
0.10551285	0.31713892	0.12395804
0.124343	0.82553062	0.13333026
0.12987923	0.06897827	0.62788633
0.11453454	0.5722756	0.63374176
0.62608177	0.31970098	0.61745112
0.63231307	0.82330974	0.62552535
0.61251769	0.06157527	0.1229304
0.62379479	0.5660111	0.12847817
0.1019032	0.31089709	0.12152472
0.11152503	0.82550036	0.14151904
0.13009873	0.06626451	0.62407964
0.11875039	0.57076275	0.63535137
0.61398903	0.31818442	0.6158689
0.64018317	0.81940762	0.63268493
0.61769344	0.06670359	0.10821911
0.61560187	0.5654206	0.11844063
0.0953949	0.30918066	0.12764045
0.10794256	0.82399516	0.1456603
0.11948007	0.06385425	0.6313614
0.10927441	0.57071991	0.63287217
0.61044991	0.314756	0.61472742
0.64043236	0.81759286	0.63802973
0.61526164	0.06701627	0.09720536
0.61321211	0.56517722	0.10904847
0.09338268	0.31202707	0.12643148
0.1129006	0.82277941	0.14498967
0.10798716	0.06318818	0.64322614
0.10518375	0.57327423	0.63016148
0.60837222	0.3143438	0.61555017
0.6287439	0.822246	0.63414996
0.60982764	0.06169	0.10306991
0.61062495	0.56881484	0.10772361
0.09786365	0.31454152	0.1135085
0.11893431	0.82205291	0.13916083
0.11298247	0.06560147	0.64356067
0.11303307	0.57355688	0.63652837
0.60347621	0.31605517	0.62115083
0.61783866	0.82791027	0.62683357
0.60921733	0.05753364	0.11477762
0.60237268	0.57420272	0.11027617
0.10524675	0.31303857	0.10967697
0.11690431	0.82238203	0.13344967
0.12107174	0.06714472	0.63020933
0.11916912	0.57257804	0.64077847
0.60022106	0.31618475	0.61699993
0.62096656	0.82713712	0.62438657
0.60677666	0.05822114	0.11374458
0.59760181	0.57523852	0.10720839
0.10208385	0.31039527	0.11605606
0.10677063	0.82333708	0.1386686
0.11559316	0.06655145	0.62482078
0.11351503	0.5741423	0.63726795
0.59942488	0.3138867	0.60539076
0.62934333	0.82290548	0.63320089
0.60248049	0.0610241	0.09507362
0.59285466	0.57194256	0.10432048
0.0901112	0.31238511	0.11871944
0.10237566	0.82182096	0.14447208
0.10385354	0.06439602	0.6339776
0.10493451	0.57443559	0.62692341
0.59955135	0.31274178	0.60614358
0.62411418	0.81953272	0.63441358
0.59835282	0.06228212	0.08312549
0.59124228	0.56794194	0.10610184
0.08597544	0.31525644	0.11238793
0.10538718	0.81983109	0.14535168
0.10073784	0.06045564	0.63843085
0.10681573	0.57464233	0.6167373
0.60205848	0.31565114	0.60744429
0.60766074	0.82353844	0.62299138
0.59779396	0.05963709	0.09335559
0.59542927	0.56741691	0.11204428
0.0885954	0.31462549	0.10239491
0.10871311	0.81575316	0.1422721
0.10599971	0.05858676	0.6304858
0.116111	0.57056699	0.61535413
0.60305795	0.32093269	0.6067973
0.60807675	0.83099989	0.61808143
0.60119613	0.05841463	0.1065171
0.59348984	0.57208647	0.10881336
0.09449696	0.31314269	0.09726322
0.10929594	0.80970197	0.13805898
0.1101225	0.06051069	0.61927223
0.12116906	0.56288348	0.62130381
0.59764416	0.32440535	0.60436036
0.62329472	0.83330154	0.61967978
0.60644145	0.06317476	0.09899836
0.59345465	0.57565121	0.09430322
0.09987035	0.31529274	0.10220109
0.09776284	0.81014359	0.14000109
0.10880109	0.06284654	0.61529804
0.11256866	0.5608986	0.62539185
0.5969728	0.32243343	0.59902481
0.62591844	0.83059586	0.62657218
0.61400707	0.06798685	0.08051304
0.59587708	0.57641773	0.08737282
0.09621483	0.32265542	0.11197092
0.09140117	0.81418449	0.13411248
0.10350857	0.06277868	0.62386033
0.0934971	0.56094485	0.62269481
0.60541648	0.31973932	0.5989011
0.60990861	0.82775527	0.63543622
0.6147257	0.06879033	0.07883666
0.59657415	0.5732683	0.09583522
0.08804849	0.32473396	0.11357086
0.10044312	0.81695571	0.12088988
0.09816952	0.06026423	0.62904443
0.08791575	0.56271233	0.61841386
0.61166325	0.32220319	0.59769849
0.59738713	0.82921813	0.62787414
0.60809554	0.06350125	0.10048035
0.60093037	0.56774276	0.10486379
0.08312921	0.31607852	0.10728457
0.10812303	0.8169136	0.11871735
0.105355	0.06007235	0.61604903
0.09637818	0.56356057	0.62806261
0.61375139	0.32397271	0.59075366
0.60494514	0.83441945	0.62602219
0.60628079	0.05923464	0.11772446
0.60535433	0.56906204	0.10547649
0.08457508	0.31153553	0.10689002
0.10811879	0.81682672	0.12994583
0.11624231	0.06141529	0.59964848
0.10255809	0.5608923	0.63679228
0.61133692	0.32225106	0.58166659
0.6214151	0.83046459	0.63507992
0.61184653	0.06271126	0.11547332
0.60892937	0.56845347	0.10058913
0.09340575	0.31401229	0.111234
0.10246415	0.82193157	0.15139862
0.11815169	0.0568015	0.59762078
0.0997233	0.56078198	0.63188719
0.60829217	0.31956896	0.57384694
0.62341728	0.8208215	0.63975456
0.6193786	0.06973567	0.10348783
0.60814829	0.56378909	0.11048487
0.09269822	0.3180801	0.10882299
0.10273025	0.82678985	0.16496616
0.11245083	0.05187049	0.60957118
0.09125942	0.56123717	0.62200929
0.60693295	0.3196233	0.57574442
0.61273738	0.816873	0.6368593
0.62166135	0.07458956	0.10682167
0.59770936	0.56285306	0.12905327
0.08485059	0.31626709	0.10456046
0.11723192	0.82681831	0.16682618
0.10920779	0.04938054	0.60991543
0.0874713	0.5622124	0.61902283
0.60325601	0.32425275	0.5839298
0.60795413	0.82279309	0.63070047
0.612873	0.0719657	0.12711706
0.59753389	0.56444915	0.13115303
0.08674238	0.30577977	0.10115374
0.12798767	0.82323149	0.16244996
0.11228947	0.04880286	0.59770418
0.09382599	0.56423578	0.62523964
0.60499471	0.32722714	0.59166034
0.62095237	0.82944136	0.6296147
0.61105358	0.0649514	0.13050476
0.61493157	0.56827279	0.11988107
0.1008954	0.30299622	0.09942479
0.12972732	0.82036092	0.1535731
0.1217141	0.05196415	0.59568558
0.09943738	0.56337051	0.6246981
0.61284102	0.32160891	0.60322896
0.64131612	0.82787887	0.63719349
0.62278234	0.06809227	0.11414062
0.63333536	0.57169638	0.10965675
0.11928728	0.31033465	0.09999811
0.12411439	0.8229415	0.14482244
0.12471011	0.05419439	0.60756479
0.10090887	0.55822618	0.61937199
0.62494843	0.31376102	0.61438381
0.64548194	0.81837224	0.64539807
0.63357072	0.07406159	0.099849
0.63800519	0.57226804	0.10789401
0.11589348	0.31552523	0.10069841
0.11554537	0.83069222	0.13741112
0.12241762	0.05312233	0.61269816
0.10323905	0.55544827	0.62219942
0.63180408	0.31379204	0.6220897
0.6291334	0.81217026	0.64569973
0.63511549	0.07216087	0.10972466
0.62990646	0.57227377	0.1143058
0.0989624	0.31529917	0.09847701
0.11592782	0.83400793	0.13123739
0.12325319	0.05240996	0.6123819
0.10757396	0.5589266	0.63249765
0.6210215	0.31634263	0.62650584
0.61219732	0.81681375	0.63667556
0.63277672	0.06483373	0.13197724
0.62509228	0.57101727	0.12271584
0.10273132	0.31289296	0.09110056
0.12364072	0.82529408	0.12962836
0.13001372	0.05397621	0.6129336
0.11447348	0.56547304	0.64035499
0.61561505	0.31196674	0.62643816
0.61234234	0.82400451	0.63073311
0.63770077	0.05899232	0.13841071
0.62872778	0.57047874	0.12806032
0.12409623	0.31348159	0.09715187
0.13141348	0.82004169	0.13382353
0.13755181	0.05623332	0.61761297
0.11860807	0.56971974	0.63337855
0.62503308	0.30213014	0.62542374
0.63004102	0.8196206	0.63550828
0.64494601	0.05983367	0.12201815
0.63086913	0.57380867	0.12816931
0.13918006	0.31845906	0.10729243
0.12985532	0.82260941	0.13662152
0.13692424	0.05657576	0.62984934
0.12150127	0.5676947	0.61789618
0.63410708	0.29969731	0.62881438
0.64893855	0.80578316	0.63493292
0.64118655	0.06523537	0.10401374
0.63176267	0.5767044	0.12314486
0.13735266	0.3220233	0.10745287
0.12325667	0.82237212	0.13593933
0.13377452	0.05799068	0.63060348
0.12672237	0.56418814	0.60952502
0.6312845	0.30494771	0.63505631
0.64619752	0.79952468	0.62705437
0.63301447	0.06937379	0.1063579
0.62815981	0.57609545	0.11852144
0.12667198	0.32087645	0.10759976
0.12077419	0.81822304	0.13211236
0.13458738	0.06067941	0.6206482
0.12970441	0.56666385	0.61674392
0.62435166	0.3091242	0.64062555
0.62922387	0.80859456	0.62241005
0.62876046	0.06760376	0.12601969
0.62592401	0.57188047	0.11907902
0.12717888	0.31621093	0.11181792
0.12564255	0.81393444	0.12704964
0.13278268	0.0634752	0.61779985
0.13287898	0.56973997	0.62946343
0.62539446	0.30639599	0.64155634
0.6145229	0.81909471	0.62654867
0.63405584	0.06357019	0.13617352
0.63340168	0.56805793	0.12296522
0.14108808	0.3130396	0.11616018
0.13318112	0.81355786	0.12513193
0.12880198	0.06478578	0.62446439
0.13582095	0.56673697	0.63657057
0.63801586	0.30096593	0.63996914
0.6220431	0.81804294	0.6365579
0.64473865	0.06306364	0.11959197
0.6383385	0.56930865	0.12306657
0.15618831	0.3166057	0.12093569
0.13262166	0.81838003	0.12187883
0.12492114	0.06403413	0.63417806
0.13655165	0.56449116	0.63055234
0.65291578	0.30134282	0.63929329
0.64398459	0.81006834	0.63976535
0.64368685	0.06369496	0.10385723
0.63760721	0.5708108	0.1196273
0.15318237	0.31830802	0.12478222
0.12676524	0.82166523	0.1156815
0.12046122	0.0636097	0.63419456
0.13706045	0.56485499	0.62339305
0.65588815	0.3068894	0.63975821
0.65011576	0.80775759	0.633303
0.63761281	0.06247166	0.11555399
0.6369291	0.5667616	0.1215622
0.14008571	0.31787593	0.12651187
0.1284085	0.82022969	0.1107805
0.11920889	0.06384746	0.62931433
0.13733418	0.56760435	0.62827979
0.64378456	0.31094816	0.64143095
0.63222747	0.81471655	0.62818533
0.63643536	0.05762952	0.13234244
0.63677716	0.56049591	0.12991901
0.13785211	0.31736574	0.13242842
0.1351037	0.81810844	0.1104789
0.12321288	0.06217704	0.62983094
0.13491046	0.57067789	0.63552987
0.63395399	0.30966724	0.64075461
0.61907309	0.82147065	0.63019493
0.6388491	0.05331676	0.133907
0.64047135	0.55826411	0.13427593
0.14971063	0.31221359	0.14255976
0.14072864	0.81908343	0.11376043
0.1265412	0.05971917	0.63501489
0.13151594	0.56771489	0.63239727
0.64084355	0.30758919	0.63442666
0.6272656	0.81753549	0.6357302
0.64256744	0.05478113	0.11839997
0.64735841	0.56164015	0.13470844
0.15545721	0.31093828	0.14867304
0.1390247	0.8221356	0.11823872
0.12855227	0.05766884	0.63854421
0.12939742	0.56263537	0.62360368
0.65324313	0.31130199	0.63197485
0.64125345	0.80977193	0.63604674
0.63981876	0.05854207	0.11438517
0.65411867	0.56395113	0.134791
0.14559252	0.31314429	0.15134708
0.1325008	0.82520016	0.12160143
0.13407846	0.05860098	0.62893865
0.13048381	0.56012962	0.62367401
0.65163204	0.31658205	0.63493373
0.6404516	0.81273246	0.62980501
0.63466282	0.05895276	0.1368711
0.65579846	0.56140676	0.13213798
0.12961611	0.31415959	0.15610858
0.13310081	0.82657651	0.12221372
0.14053679	0.06189261	0.615189
0.13418823	0.55992791	0.63317324
0.64173861	0.31995399	0.63549704
0.62452189	0.82397979	0.62375277
0.63772357	0.05440045	0.15078817
0.6504733	0.5582637	0.12845378
0.13024509	0.31456864	0.15935048
0.13615148	0.82341571	0.12026609
0.14048952	0.05973596	0.61683662
0.13773393	0.56238606	0.64043553
0.64102668	0.31964418	0.63314158
0.62223951	0.83112413	0.62380094
0.64613755	0.04990782	0.14226287
0.64711061	0.55942077	0.12931851
0.14406221	0.31255309	0.15558281
0.13297227	0.82032582	0.11558158
0.13467401	0.05716388	0.62936121
0.13649691	0.56420993	0.63990803
0.65403512	0.31764449	0.63073627
0.64376421	0.82902347	0.62699334
0.6517787	0.0530556	0.12774527
0.65189404	0.56379298	0.13040789
0.1528395	0.30858497	0.14787263
0.12655484	0.82229513	0.11132617
0.13160342	0.05958385	0.63668188
0.13559805	0.56367464	0.63713848
0.6631455	0.32192029	0.63217307
0.66182433	0.82271427	0.62887756
0.64879609	0.05909628	0.12501984
0.65628453	0.56751132	0.12767439
0.14135011	0.30536547	0.14529171
0.12407831	0.82540345	0.11208068
0.13578686	0.06261691	0.63835597
0.13900859	0.56435364	0.64464422
0.65389356	0.32604419	0.63840846
0.64893017	0.82284011	0.63044617
0.64451656	0.05964135	0.14195968
0.65756307	0.56618231	0.12771061
0.12690071	0.30353604	0.14658814
0.13547945	0.82296904	0.11884778
0.14462325	0.06425357	0.63899919
0.1389676	0.56930619	0.66111911
0.64233466	0.32160964	0.64286602
0.62824062	0.8331078	0.63265405
0.64563365	0.0575823	0.16066231
0.65186088	0.5631043	0.13341051
0.13729111	0.30549642	0.14395695
0.14357236	0.81696849	0.12436827
0.14878938	0.06412047	0.6479335
0.13906896	0.57613427	0.66685371
0.64160775	0.31749591	0.64310434
0.62469321	0.83839074	0.63517516
0.6506848	0.05977505	0.16310487
0.65424576	0.564782	0.14323212
0.15508913	0.31162985	0.13228234
0.13885202	0.8152971	0.12545976
0.14732928	0.06268532	0.66273607
0.14205651	0.58048469	0.66020745
0.6461036	0.32029161	0.64230323
0.64324016	0.83114195	0.6328789
0.65877284	0.06860434	0.14791439
0.6638302	0.57180241	0.15256371
0.15414593	0.31720507	0.11918953
0.1334816	0.81859028	0.12724291
0.14812112	0.0625519	0.66181608
0.14708712	0.57747072	0.64754442
0.64642736	0.32691386	0.64615993
0.65698687	0.82399438	0.62828758
0.66464692	0.0736421	0.13584307
0.66013731	0.57895038	0.1535864
0.14348608	0.31801589	0.12450013
0.13363356	0.81867922	0.12831964
0.15095746	0.06600983	0.65151672
0.15547228	0.57316122	0.63972941
0.63951335	0.33004244	0.65309813
0.64526868	0.82766816	0.63070555
0.66340803	0.07123075	0.14663813
0.64975128	0.57902084	0.14319634
0.13601706	0.31392567	0.13593398
0.13659335	0.8148738	0.12269563
0.14896422	0.07117841	0.64945105
0.15938901	0.57836329	0.64529718
0.63430871	0.32538206	0.65228706
0.62002197	0.83755581	0.63749014
0.65464572	0.07117634	0.16513722
0.63790226	0.57160547	0.1304301
0.14336592	0.31335501	0.13440171
0.1408042	0.81200094	0.11279508
0.1424712	0.07566188	0.66319732
0.15523251	0.5813869	0.6555294
0.63547298	0.31632075	0.65281584
0.6113447	0.8438164	0.64425499
0.64349607	0.07385573	0.15768664
0.63756594	0.57141901	0.12318499
0.15549412	0.32233579	0.12178919
0.14347478	0.81468585	0.11237953
0.13975364	0.07838869	0.67982549
0.14625075	0.57772719	0.6601286
0.64046066	0.31428098	0.66181394
0.62550408	0.83747814	0.6467551
0.64288991	0.07565943	0.13779926
0.64688757	0.5794708	0.12869966
0.1556577	0.3249251	0.11607961
0.1440615	0.82072183	0.12470623
0.14315129	0.07825368	0.6783065
0.13605072	0.57967114	0.65038635
0.64607836	0.321296	0.6659748
0.64235458	0.82618261	0.64454233
0.65159883	0.07626965	0.13145125
0.64794527	0.58400567	0.14517792
0.14155163	0.31844705	0.12585459
0.14217324	0.82499082	0.1315365
0.1428249	0.07845494	0.66361048
0.13186002	0.57929246	0.63355333
0.6444882	0.32669366	0.66352272
0.63731026	0.82157874	0.64377547
0.65390894	0.07746355	0.14208344
0.64255766	0.58014219	0.15642507
0.12583423	0.32022807	0.13632649
0.14163427	0.82617307	0.135265
0.13178725	0.07885788	0.65904271
0.13525937	0.58141871	0.62801935
0.64246419	0.32554179	0.66290185
0.61717954	0.82804067	0.64442999
0.64272153	0.07964199	0.15433049
0.6352625	0.57630436	0.14797671
0.12181319	0.32764701	0.13471289
0.1408095	0.82802614	0.1340714
0.12074921	0.07425237	0.66496952
0.14040923	0.58222618	0.63298357
0.64663506	0.31990566	0.66853867
0.61320522	0.83290887	0.64300536
0.62406113	0.079709	0.15208792
0.63198321	0.58031239	0.12955544
0.1364018	0.33027948	0.12346063
0.13738401	0.83208479	0.13143889
0.11679909	0.0675026	0.66559606
0.14145285	0.57914245	0.63103464
0.65090066	0.31907171	0.67481657
0.63238365	0.82609887	0.63475972
0.61937302	0.07738508	0.1458723
0.63422197	0.58205535	0.1304272
0.14831768	0.32692124	0.11452162
0.1311493	0.83639851	0.13863518
0.12234883	0.06970505	0.65427543
0.13212751	0.57551139	0.62996532
0.65249692	0.32301729	0.66976834
0.64644684	0.81701434	0.6285513
0.63112336	0.07243783	0.15271366
0.63143433	0.57842282	0.14534563
0.14136018	0.32507971	0.12162738
0.12089084	0.83886002	0.14424394
0.12601914	0.07810752	0.64215705
0.11925379	0.5723866	0.62330708
0.64998824	0.3255939	0.6534308
0.64212624	0.81705648	0.62959155
0.64160708	0.06461282	0.16543461
0.62656647	0.57434313	0.14765968
0.12553347	0.32757395	0.13878954
0.11816549	0.83947606	0.14022855
0.12042042	0.07837764	0.63974586
0.11993846	0.57147391	0.62697192
0.64537571	0.32425424	0.64072343
0.62322473	0.8234211	0.63572513
0.63971323	0.06113816	0.16617387
0.62433059	0.57179146	0.13918189
0.11747842	0.33176136	0.14542676
0.12563295	0.83832674	0.12957486
0.11806263	0.0700178	0.64047188
0.12652996	0.57399578	0.63859452
0.64666357	0.32165018	0.64148194
0.62383455	0.82820651	0.64113736
0.62528562	0.06124125	0.15283717
0.62323314	0.57119719	0.13164025
0.12694438	0.33228318	0.13921919
0.12866278	0.83803807	0.12679708
0.12526417	0.0650709	0.63776722
0.12703056	0.57848444	0.63442444
0.64745555	0.3246819	0.64992711
0.64857152	0.82644782	0.63789061
0.61552634	0.06150207	0.14505422
0.62736034	0.56988763	0.12951145
0.13348505	0.32793816	0.12895042
0.11958378	0.83851015	0.13525787
0.13341859	0.06988787	0.63294343
0.12744954	0.58188809	0.62366161
0.64157985	0.32734893	0.65331957
0.65484893	0.82108045	0.62971274
0.62328072	0.06360046	0.15084018
0.63010701	0.56697175	0.13163633
0.12186503	0.32484796	0.13311615
0.10967957	0.83780674	0.14110239
0.13154243	0.07615398	0.62818531
0.12769369	0.5811723	0.6219583
0.63861092	0.32310194	0.64715045
0.63812404	0.81938621	0.63088243
0.63378335	0.06346293	0.15465521
0.62869259	0.56657079	0.13012488
0.11236503	0.32490642	0.14725798
0.10805887	0.83593124	0.13513986
0.12349088	0.07424236	0.62832729
0.12689092	0.57776153	0.62971575
0.63799981	0.31819611	0.64084376
0.62272914	0.82791038	0.63806043
0.62780547	0.06223366	0.14517531
0.62870593	0.56981842	0.12504504
0.1164232	0.32499595	0.14882235
0.11535656	0.83319818	0.12429032
0.12306402	0.06967638	0.63421218
0.12665418	0.57667459	0.64098893
0.63386926	0.31725173	0.64182811
0.62566852	0.83603833	0.64642103
0.61720996	0.0643476	0.13175988
0.62750934	0.57341993	0.1242334
0.12367631	0.32388505	0.13451378
0.12186639	0.83030246	0.11864111
0.12856594	0.06850169	0.63637101
0.12211211	0.57828585	0.64404891
0.6261955	0.31895575	0.64681802
0.64262834	0.8363267	0.64388503
0.61551174	0.06521775	0.1306099
0.62699065	0.57371309	0.12739617
0.12504169	0.32104028	0.1284942
0.11974554	0.8289418	0.12665233
0.13166035	0.07066226	0.63083869
0.12324545	0.57976347	0.64159844
0.61956762	0.31866596	0.64631069
0.65287676	0.83227474	0.63540585
0.62454131	0.06474359	0.13931277
0.62692648	0.57028406	0.12938455
0.11934831	0.31904968	0.13678712
0.11178439	0.82795522	0.12987379
0.12492876	0.07157542	0.62861188
0.13149752	0.57805709	0.63735149
0.62100641	0.31731518	0.63875502
0.64813006	0.82748865	0.63346241
0.63023834	0.06378396	0.14130207
0.62325424	0.56743742	0.12751083
0.11104827	0.32037176	0.14497947
0.10917622	0.82548235	0.12250231
0.11198606	0.06880188	0.63361816
0.13877202	0.57538478	0.63286348
0.62510691	0.31737432	0.6392288
0.63933314	0.82490678	0.63947717
0.6201933	0.0629924	0.12822294
0.62229754	0.56833741	0.12153083
0.10780903	0.32138343	0.14078142
0.11639478	0.82241613	0.11851827
0.11068627	0.06466024	0.63912414
0.13996347	0.57459861	0.63343085
0.62316339	0.31854915	0.64438881
0.63433246	0.82655169	0.6419131
0.60776259	0.06398675	0.11139309
0.62556422	0.57035858	0.11384622
0.11150732	0.31912674	0.13103455
0.12158989	0.81971972	0.12397626
0.12099636	0.06396767	0.64144233
0.13435954	0.5747056	0.63736663
0.61610448	0.32215487	0.64425538
0.63840655	0.82693367	0.63528209
0.60729509	0.0652395	0.11094764
0.62848755	0.57016917	0.10819335
0.11715918	0.31501668	0.12884855
0.11679816	0.81825861	0.13497537
0.12412021	0.0687273	0.6390205
0.13415542	0.57456827	0.64255135
0.61111636	0.32313518	0.63799105
0.63999022	0.82320593	0.62741434
0.61813358	0.06550269	0.11693864
0.62344501	0.56807525	0.10988686
0.12009329	0.31256905	0.13322413
0.10975811	0.81657769	0.14358079
0.11538951	0.07347614	0.63526761
0.13877419	0.57110057	0.64283801
0.61541613	0.31898803	0.6277345
0.63328471	0.82126877	0.62689044
0.62605772	0.0637307	0.11303581
0.61517401	0.57053073	0.11534673
0.11507311	0.31334039	0.13488685
0.11246815	0.8131171	0.14469899
0.10418208	0.06951237	0.63866506
0.13623636	0.56567909	0.6344623
0.62415706	0.31732435	0.62490768
0.62961638	0.82235049	0.62894915
0.61762266	0.06212717	0.10516196
0.6159345	0.57330974	0.11757466
0.10985103	0.31166533	0.12826913
0.1240126	0.81000699	0.14323878
0.10341541	0.0646961	0.64313644
0.12799596	0.5646873	0.63296347
0.62580534	0.31812036	0.625097
0.62838341	0.8245782	0.6254447
0.6094762	0.06289517	0.10205532
0.62095749	0.57104499	0.1154351
0.11020046	0.30871405	0.11655425
0.13295918	0.8089964	0.14052389
0.11171932	0.06252775	0.6380153
0.11937256	0.56624474	0.64200787
0.62190122	0.3171336	0.61351464
0.62743237	0.82286816	0.61271004
0.61976664	0.06352718	0.1079265
0.62516207	0.56862672	0.11048521
0.11211349	0.30788903	0.11117664
0.12972849	0.81066718	0.14283819
0.11634431	0.05940067	0.63046428
0.115886	0.56615732	0.64157206
0.62266667	0.31788742	0.60052371
0.62677064	0.81842709	0.60307804
0.63140254	0.06353799	0.11668944
0.62741242	0.5656915	0.10854731
0.11224105	0.30730012	0.11318264
0.11949856	0.8161631	0.14474531
0.11362863	0.05702845	0.63179061
0.11831513	0.56440557	0.63121637
0.63335011	0.31964718	0.59387971
0.61817832	0.81514029	0.60337399
0.62854611	0.06213155	0.10925698
0.6271785	0.56221114	0.11293064
0.10338642	0.30782077	0.11615994
0.12283654	0.8214162	0.13957156
0.11139289	0.05343531	0.63638817
0.11427258	0.5631411	0.6270037
0.64055547	0.31898059	0.59154764
0.60975867	0.8139967	0.61249984
0.61435546	0.05773926	0.09953636
0.6294235	0.55915505	0.11938521
0.10375492	0.30774717	0.11222111
0.1391069	0.82456713	0.13749491
0.12004993	0.05188082	0.63208807
0.10001406	0.56352656	0.63428356
0.63377499	0.31622806	0.5901166
0.6105564	0.8162939	0.62637799
0.61019042	0.05474101	0.10287742
0.62937733	0.55744918	0.12189801
0.12157636	0.30742395	0.10472209
0.14880502	0.82217108	0.13580226
0.13533745	0.05469266	0.62093111
0.08746222	0.56245904	0.63822708
0.62075388	0.31504001	0.5847927
0.61671771	0.81896083	0.63076165
0.62704882	0.05495138	0.11496826
0.62305179	0.55961884	0.119695
0.12684337	0.30732882	0.10085
0.14391741	0.81541567	0.13053505
0.13813685	0.05502467	0.61499616
0.08902553	0.55871234	0.62982561
0.61799695	0.31419322	0.58050398
0.61817391	0.817942	0.63040113
0.64174206	0.05777688	0.11815166
0.61842229	0.56353168	0.11921979
0.12136527	0.30704923	0.09942877
0.12760713	0.80983642	0.12971006
0.13756788	0.05157803	0.61869223
0.09720884	0.55534309	0.61715657
0.63132255	0.3115853	0.58441851
0.61741758	0.81493782	0.63876254
0.64005967	0.06295081	0.10248833
0.61646923	0.5656896	0.12128251
0.11647979	0.30668696	0.09705925
0.12341037	0.80932118	0.11938053
0.13964415	0.0466887	0.62244447
0.09849063	0.55427293	0.61221599
0.64254027	0.30886341	0.59521594
0.61997145	0.81144441	0.64055784
0.63545433	0.06267787	0.08998566
0.62352762	0.56489026	0.12198377
0.11568106	0.30635412	0.09254997
0.13322098	0.81348264	0.11002896
0.14067434	0.04324724	0.61246638
0.09719642	0.55457901	0.61606847
0.63860285	0.30556123	0.59874074
0.62056931	0.81186142	0.63646493
0.64215571	0.06129886	0.09731346
0.6346723	0.56108042	0.11957637
0.12130505	0.30580216	0.09204208
0.14301095	0.81872314	0.11201462
0.14502148	0.043411	0.59814156
0.09949033	0.55293771	0.62161523
0.62384101	0.30289306	0.59150465
0.61988016	0.81608292	0.63372501
0.66303808	0.06084013	0.10642555
0.62668389	0.55996023	0.11517692
0.12996025	0.30522182	0.0972495
0.14538867	0.81862445	0.11196461
0.14232441	0.04487723	0.59902832
0.11018633	0.55050335	0.62035021
0.61556726	0.306216	0.59298873
0.61868169	0.81562109	0.63350912
0.67935097	0.06094195	0.09994554
0.61899481	0.56321211	0.11609105
0.13333604	0.30381527	0.09871353
0.1415596	0.81416822	0.10926525
0.13332151	0.04516361	0.61390845
0.11709832	0.5512116	0.61687419
0.62278615	0.30692236	0.60263736
0.62159166	0.8111417	0.63802723
0.67564158	0.05941382	0.08296425
0.62353078	0.56831562	0.12791375
0.13111064	0.30601247	0.09311612
0.13837912	0.80908346	0.10519011
0.13104229	0.04436314	0.61627015
0.11070291	0.55408333	0.61754762
0.63346949	0.30195345	0.60255257
0.62928448	0.8059587	0.63822102
0.65628023	0.05630696	0.07900674
0.63206981	0.57029259	0.13248252
0.12922654	0.30987697	0.08729028
0.13928485	0.81026941	0.109257
0.13573285	0.04191788	0.60029367
0.11189401	0.55576583	0.62083749
0.63143136	0.29793463	0.59580872
0.63417099	0.80546421	0.63193095
0.64477289	0.05873818	0.09498529
0.63908412	0.56682178	0.12232594
0.13417738	0.30770861	0.0915477
0.13514922	0.81080356	0.11885604
0.14104737	0.04181933	0.58877018
0.1191649	0.55315066	0.62735557
0.62238748	0.29685907	0.59498126
0.63178108	0.81168239	0.62918788
0.65369352	0.06467976	0.10924701
0.63147712	0.56479013	0.11385353
0.14574296	0.30425955	0.0990947
0.13209693	0.80505872	0.11873821
0.14004801	0.04554712	0.5947811
0.12580055	0.54601922	0.6287343
0.62435277	0.30183452	0.6059081
0.62996926	0.81602631	0.6304801
0.66943819	0.06578253	0.10738612
0.6239232	0.56680471	0.11321754
0.15390052	0.30424746	0.09876883
0.12779342	0.80501344	0.10925539
0.13944836	0.04701233	0.61135026
0.12710668	0.54296776	0.622971
0.63225165	0.30727407	0.61996978
0.63121645	0.81324761	0.63177549
0.66863898	0.06195802	0.09590429
0.63746037	0.56909154	0.11544298
0.15078914	0.30654122	0.09908621
0.12324914	0.81106907	0.09765929
0.14464238	0.04586669	0.61638724
0.12259145	0.54370907	0.61704913
0.63346309	0.30556736	0.62253643
0.63451109	0.80835635	0.62575943
0.65744657	0.05774807	0.0923256
0.64638431	0.56748991	0.11851455
0.14207955	0.30989204	0.10634914
0.12898484	0.81273017	0.09861644
0.14167655	0.04439962	0.60441286
0.12122603	0.54668998	0.61670078
0.63126109	0.3016907	0.61564547
0.62747643	0.8047046	0.61917497
0.65194395	0.06022108	0.10530156
0.64224021	0.56206301	0.11965388
0.14087342	0.30870313	0.11799032
0.13282034	0.81263639	0.11895253
0.12846345	0.04356178	0.59035814
0.12421679	0.54863198	0.62101611
0.62931804	0.30118508	0.61230743
0.61363796	0.80595407	0.62190328
0.65682778	0.06493122	0.11489434
0.63550652	0.56473474	0.12018962
0.14767005	0.30674166	0.12431378
0.13508819	0.81119424	0.1343507
0.11930304	0.04383885	0.59650444
0.12762558	0.54897501	0.6203832
0.63240047	0.30484631	0.61973652
0.61336345	0.81017133	0.63220702
0.65733641	0.06659559	0.11013837
0.63728009	0.56986795	0.12030445
0.15084271	0.30789019	0.11944065
0.13939902	0.81130453	0.13686282
0.11745202	0.04630708	0.6179285
0.12865126	0.55250914	0.61625062
0.64092261	0.30875095	0.63059588
0.61974033	0.81144566	0.64142821
0.64450718	0.0608893	0.10862138
0.64942316	0.56946739	0.11650118
0.14443349	0.30845021	0.11254478
0.14077753	0.81472221	0.12735022
0.13037023	0.04864664	0.62688914
0.12503917	0.55705161	0.61757954
0.64555363	0.30648199	0.63516392
0.62038657	0.81039128	0.64021883
0.63495389	0.05492151	0.11580379
0.65833661	0.566622	0.11364831
0.14092183	0.30844515	0.1147816
0.13924231	0.81726815	0.12103049
0.1395517	0.04863468	0.61748024
0.12147707	0.5581021	0.61611304
0.64077765	0.30600735	0.63078783
0.61846716	0.80810251	0.62718546
0.64170743	0.056556	0.12546534
0.65456758	0.56435448	0.11449467
0.14396298	0.3088406	0.12432731
0.13321271	0.81764664	0.12632882
0.12877671	0.04836267	0.60681742
0.12262847	0.55696378	0.61475035
0.63048975	0.30995236	0.6231577
0.61832051	0.81014973	0.61650372
0.64925157	0.06295208	0.12736837
0.64158587	0.56539217	0.11761669
0.14351744	0.31121134	0.12863156
0.1256369	0.81775819	0.13027879
0.1182795	0.05184334	0.61403359
0.1273021	0.55613342	0.61930823
0.62575963	0.31323555	0.62682376
0.62776462	0.81554432	0.61950621
0.64756341	0.06349315	0.11908006
0.63279698	0.56897234	0.12308376
0.13679178	0.31561237	0.12100229
0.12198769	0.81932753	0.12789666
0.12273229	0.05599544	0.63126329
0.13089905	0.5591882	0.62332395
0.63151314	0.31515474	0.63949396
0.63832817	0.8164894	0.63198037
0.63833484	0.05913119	0.12218482
0.64197191	0.56803652	0.12355918
0.12718359	0.31826697	0.1149393
0.12115873	0.82222378	0.12415796
0.13761722	0.05919784	0.63586652
0.12832149	0.56443271	0.62537874
0.64401353	0.31345245	0.64835501
0.63518699	0.81434704	0.63376979
0.6343246	0.05462308	0.13449832
0.65531354	0.5645291	0.11990019
0.12437067	0.31901535	0.12214932
0.12401781	0.82313934	0.12131151
0.13882477	0.05923931	0.62835326
0.12551039	0.56828938	0.62484811
0.64989651	0.31375616	0.64360968
0.62285207	0.81360644	0.62090742
0.63909896	0.05547986	0.14099051
0.65669434	0.56393307	0.12056432
0.13335154	0.31853917	0.13022304
0.12440435	0.82351755	0.13262512
0.12451326	0.05865928	0.62495079
0.12958494	0.57114553	0.62399809
0.64149567	0.31908992	0.63209532
0.61469962	0.81704974	0.61568959
0.63918115	0.05894007	0.14020614
0.64304739	0.56521855	0.12261467
0.14060349	0.31717465	0.12707798
0.11805609	0.82293379	0.13598541
0.1221758	0.06103137	0.63329445
0.13860963	0.57337206	0.6276713
0.63444243	0.32101626	0.63438105
0.6200791	0.82350093	0.62697731
0.62862021	0.05742048	0.13264498
0.62679603	0.56640894	0.12505764
0.13903203	0.31603106	0.12240777
0.11992799	0.82245264	0.12497057
0.1301899	0.06739121	0.64474932
0.14368148	0.57620965	0.63682886
0.64251536	0.31869407	0.64714864
0.63792664	0.8271047	0.64165535
0.61785125	0.05319613	0.13329194
0.62724848	0.56456718	0.12824757
0.13231007	0.31684516	0.12625845
0.12166105	0.82491065	0.12395407
0.13536499	0.07369064	0.63926864
0.13906963	0.58018747	0.64419878
0.64952599	0.31428612	0.64913833
0.64926829	0.82840776	0.64022702
0.6148848	0.05573938	0.14387285
0.63892883	0.56031534	0.13147529
0.12741096	0.31857275	0.13920018
0.11882223	0.8272434	0.12944416
0.12943607	0.07466372	0.6279129
0.13740228	0.58181669	0.6417609
0.64770623	0.31256788	0.64495997
0.64732738	0.82918717	0.62325309
0.62046154	0.0631456	0.14747097
0.63700817	0.56002055	0.13402891
0.1260747	0.31926785	0.14677637
0.12227955	0.82587532	0.13215858
0.11459338	0.07343059	0.63636117
0.14307543	0.58254758	0.63878439
0.63927689	0.31477872	0.64565824
0.63699069	0.83055093	0.61939983
0.62383716	0.06778096	0.14120139
0.62742304	0.566903	0.13736976
0.12240709	0.31802999	0.13795744
0.12475761	0.82638925	0.12809388
0.11030018	0.07646438	0.6602193
0.1466427	0.58511321	0.64614619
0.6370739	0.31743708	0.65588356
0.62912122	0.83404726	0.63868418
0.6196687	0.06449996	0.13626068
0.62676445	0.57733822	0.14384008
0.1191023	0.31846985	0.13033435
0.12853096	0.8290546	0.12027437
0.12175099	0.08387279	0.6762033
0.14666214	0.58562166	0.65631953
0.64878741	0.31919981	0.66515817
0.63878957	0.83583129	0.64728497
0.61042205	0.06389249	0.14157717
0.63652884	0.5814015	0.14983532
0.12096318	0.32050528	0.13980403
0.13487194	0.83106856	0.11939061
0.13444159	0.08931775	0.67629167
0.14403304	0.58548778	0.66257802
0.65492718	0.31895195	0.66116953
0.6568125	0.83577412	0.63768563
0.60614746	0.0707624	0.15472364
0.64381768	0.57315149	0.15057313
0.12083518	0.3220752	0.15525566
0.13176999	0.83151612	0.12238448
0.12894103	0.08904993	0.66897043
0.14358192	0.58835246	0.6599926
0.64336908	0.31904806	0.64626887
0.66673479	0.83413514	0.62811851
0.6103649	0.07824764	0.15757384
0.63613859	0.56308819	0.15374567
0.11809408	0.32213627	0.15798742
0.12810283	0.8296336	0.1291005
0.10768971	0.08789717	0.66735207
0.14765819	0.59284401	0.65046273
0.62823707	0.32623354	0.6378897
0.65883506	0.83170629	0.63387545
0.61275987	0.07868008	0.14670529
0.6208952	0.56651342	0.16374698
0.11477559	0.31883137	0.14969158
0.12944359	0.82806656	0.13198567
0.09102317	0.09169313	0.67333488
0.14522534	0.59489382	0.64981722
0.62352603	0.33410017	0.64436539
0.64349141	0.83368802	0.64944605
0.60809626	0.07468567	0.13844835
0.61402989	0.57885636	0.17384947
0.1116207	0.31785353	0.14654495
0.1375163	0.82877886	0.13443007
0.09899558	0.09673689	0.67769729
0.13286161	0.59392815	0.65606902
0.63126592	0.33429283	0.65358623
0.64625753	0.83718273	0.6537528
0.59721317	0.07652462	0.14713821
0.61580652	0.57964462	0.17665662
0.11582801	0.32523149	0.15729992
0.14250571	0.8312282	0.14065901
0.11860838	0.09580858	0.67297721
0.11867087	0.5929497	0.65328366
0.64029387	0.33411296	0.6508183
0.66272489	0.83849916	0.64051305
0.5954026	0.08116526	0.16150109
0.62493607	0.57113875	0.17057391
0.1159551	0.33593886	0.17068088
0.13419151	0.83456877	0.14272372
0.13077684	0.08918351	0.6711579
0.1120011	0.5927675	0.65005281
0.64061407	0.33355894	0.64620939
0.66186597	0.83722232	0.62877313
0.61121071	0.08111877	0.16396071
0.63718637	0.57342837	0.15926378
0.11084916	0.34039022	0.17024763
0.13012957	0.83277593	0.13668744
0.10861574	0.0838142	0.67982782
0.11652392	0.59345069	0.64756345
0.63808068	0.33805706	0.65420047
0.6471285	0.83274667	0.63361895
0.62132658	0.07813501	0.1632121
0.63634665	0.58632253	0.14768496
0.10877652	0.33725431	0.15602213
0.13007899	0.8341206	0.1266562
0.08617939	0.0849964	0.68533721
0.12281268	0.59293142	0.64703155
0.6334388	0.34250335	0.6649145
0.64530681	0.83176426	0.64936632
0.61899541	0.07031492	0.16612511
0.62845165	0.58987963	0.14472307
0.11125778	0.33485687	0.14778037
0.12195169	0.84166312	0.12093474
0.10682249	0.08682723	0.68473278
0.12129392	0.58954424	0.65189944
0.63208328	0.34020762	0.66719912
0.65533811	0.83695966	0.65816288
0.61413617	0.06446138	0.17124625
0.62039233	0.57996493	0.14142397
0.11125653	0.33665423	0.15988489
0.11791433	0.84313193	0.1226009
0.13391319	0.0862671	0.67848007
0.11817715	0.58715695	0.65729031
0.6351855	0.33764901	0.66115993
0.65668687	0.84147317	0.65494901
0.61063438	0.06551974	0.17277451
0.62125924	0.57519035	0.13848064
0.10490625	0.33756745	0.17521515
0.1163686	0.84122501	0.13237131
0.13609522	0.08425447	0.67060761
0.12466114	0.5897565	0.66554724
0.63055498	0.3418769	0.65656441
0.64332462	0.84280876	0.64480068
0.61446654	0.06989028	0.1599153
0.62401634	0.58153932	0.13568951
0.10029142	0.3354305	0.17257062
0.11915576	0.8389198	0.13603297
0.11980646	0.08137772	0.67390505
0.1348135	0.59458144	0.66781448
0.62036868	0.34620974	0.65996112
0.62772867	0.83960179	0.63989057
0.61817391	0.07532238	0.15048702
0.61938331	0.58733331	0.13052017
0.10267589	0.33029783	0.16098797
0.12609088	0.83664469	0.13088329
0.11176971	0.07798927	0.68217003
0.13902823	0.59364489	0.66134821
0.61035911	0.34117829	0.6598744
0.62297627	0.83757523	0.64440127
0.62085365	0.07526713	0.15423877
0.61035643	0.58409001	0.12633946
0.1100413	0.32602072	0.16067214
0.12344729	0.83759501	0.13828991
0.12576615	0.07746308	0.68043123
0.13669972	0.58647587	0.65563437
0.60646258	0.33216643	0.65387712
0.63130178	0.8408348	0.65260851
0.62404386	0.07060136	0.15753123
0.6070568	0.57602641	0.12338973
0.11412128	0.3252087	0.16345226
0.11379891	0.83639433	0.13954822
0.13893741	0.0782598	0.66548086
0.13541774	0.58221485	0.65179369
0.61313236	0.32888986	0.64552581
0.64056713	0.84419201	0.65224965
0.62470428	0.06778463	0.15175756
0.61489531	0.57253969	0.12647149
0.10824428	0.32504578	0.16044478
0.10994549	0.83245318	0.13023077
0.13439706	0.07671537	0.6468475
0.13570748	0.58442559	0.65033718
0.62553871	0.33155797	0.64382919
0.63955876	0.84449322	0.64638806
0.62364368	0.07088342	0.14379493
0.62499047	0.5759911	0.12839971
0.09603987	0.32367955	0.15351799
0.11784769	0.83207994	0.13027604
0.12166064	0.07482249	0.64100089
0.13118567	0.58829406	0.64885668
0.6268026	0.33456028	0.64707624
0.63091044	0.84271573	0.6461428
0.61832241	0.07548422	0.13947001
0.62967373	0.57790767	0.12473985
0.09036219	0.32157986	0.1481032
0.1252573	0.83463155	0.13384479
0.11441541	0.07387598	0.64331977
0.12349463	0.58758564	0.64078202
0.62012436	0.3332609	0.63947045
0.62587249	0.83916537	0.64734339
0.61185484	0.07198846	0.14247049
0.62693681	0.57471054	0.13055195
0.10013888	0.32048019	0.14804084
0.11964642	0.83659525	0.13896926
0.12401603	0.07504414	0.64184781
0.11808245	0.58150092	0.63538719
0.62121007	0.32707115	0.63184964
0.6241622	0.8385804	0.64517394
0.60953037	0.06178843	0.14286321
0.61804546	0.56845746	0.13807465
0.11356165	0.31911263	0.14522125
0.11802686	0.83426249	0.14193099
0.13344887	0.07598984	0.63900662
0.12171654	0.57467856	0.63856726
0.62927836	0.32012566	0.63078917
0.62410316	0.83641899	0.64426481
0.60830828	0.06180355	0.13601958
0.61424372	0.56720062	0.13848674
0.1142447	0.3169575	0.13391524
0.12179989	0.82681898	0.13809724
0.1313092	0.07139629	0.63788027
0.12905903	0.57265534	0.63680868
0.62967413	0.31992713	0.63118965
0.6258964	0.83025555	0.63868572
0.60986692	0.06674589	0.12672245
0.62267634	0.57243581	0.13581021
0.10784724	0.31677975	0.1208925
0.11937486	0.81972928	0.13361808
0.12680824	0.0686439	0.63914826
0.12667928	0.57413958	0.62791918
0.62200082	0.32429678	0.6328488
0.62610262	0.82590963	0.63334852
0.61383485	0.06853906	0.12595287
0.62547406	0.57367767	0.12984835
0.11283866	0.31636651	0.11581533
0.1208191	0.81863537	0.13046484
0.12308482	0.07061134	0.63935599
0.11792451	0.5749576	0.62131152
0.61371624	0.32711994	0.63444891
0.62608425	0.82105484	0.63500634
0.62150058	0.06297907	0.12961031
0.62112185	0.56917982	0.12583931
0.12195918	0.31491747	0.11962637
0.12076967	0.82312377	0.13026013
0.12669753	0.07343682	0.63148937
0.11074816	0.57197731	0.61939803
0.61499306	0.32167941	0.63864463
0.62878469	0.81673996	0.63672102
0.62843951	0.0564757	0.12793571
0.61886154	0.56447886	0.13107835
0.12326861	0.31466619	0.12364788
0.11405289	0.8255303	0.1368972
0.1321363	0.07344094	0.61948831
0.11025965	0.56921975	0.62313996
0.62678996	0.3127961	0.64322986
0.62827512	0.81447832	0.63165104
0.62754769	0.05533066	0.12139486
0.62213669	0.56262294	0.13066992
0.11643	0.31571848	0.11709099
0.11682532	0.81916072	0.14238105
0.12628873	0.06778328	0.61613817
0.1138373	0.56935168	0.62520626
0.64019625	0.3111202	0.6416599
0.62269792	0.81438493	0.62232276
0.62582101	0.05885728	0.1164474
0.62803252	0.56649308	0.11936591
0.11007972	0.31777189	0.11006558
0.12605289	0.81246708	0.14453711
0.11753543	0.06222669	0.6266261
0.11392525	0.57094768	0.62235977
0.64688892	0.31454734	0.63483355
0.62212904	0.81616548	0.61379358
0.62612984	0.06039951	0.11453947
0.62634931	0.56720062	0.11497833
0.12091241	0.31792199	0.10750045
0.12754523	0.8129606	0.13727014
0.11709838	0.06139533	0.63592552
0.11023791	0.57134991	0.61806486
0.64232723	0.31406132	0.62714146
0.62347277	0.81606867	0.61321079
0.62911946	0.05740317	0.11327726
0.61959952	0.56085451	0.12208439
0.13911131	0.31573446	0.10380057
0.12296419	0.81636731	0.12479884
0.12926085	0.06299618	0.63392527
0.10825449	0.56896026	0.61840753
0.63462028	0.30802524	0.62961155
0.62252041	0.81168211	0.62210681
0.64099834	0.05297071	0.10524198
0.61665608	0.55837088	0.12875993
0.13986417	0.31196898	0.10015002
0.11942553	0.81874884	0.12485492
0.13799342	0.06212725	0.62483775
0.11649786	0.56523006	0.62542754
0.63507939	0.30584043	0.63563472
0.62675996	0.80710896	0.62789828
0.64571471	0.05431175	0.09505356
0.61885452	0.56100857	0.12717074
0.12971824	0.30955458	0.09476406
0.122661	0.81608519	0.12312121
0.13344967	0.05661859	0.62025597
0.12656934	0.56475324	0.62677308
0.64056802	0.30961131	0.63127328
0.62976438	0.80732431	0.62318449
0.64231732	0.05907511	0.09412508
0.62729802	0.56221442	0.12044639
0.12615369	0.30959382	0.09563359
0.12964266	0.81233861	0.11626086
0.12621768	0.05239675	0.62310005
0.1209808	0.56438955	0.6218172
0.64127693	0.31071456	0.61939525
0.63466996	0.81207112	0.61782805
0.65020061	0.06093117	0.10592338
0.63762649	0.55937688	0.11628167
0.13476009	0.30930312	0.10808135
0.13289425	0.81666556	0.11564399
0.12370735	0.05171664	0.62256561
0.11252918	0.56025517	0.61958356
0.63461783	0.30575525	0.61237029
0.63970179	0.81355122	0.62099535
0.65747408	0.05500276	0.11394999
0.64036965	0.55669557	0.11808853
0.14613893	0.30766677	0.11218373
0.13408969	0.81747207	0.11698573
0.12519431	0.05040565	0.60863334
0.11321787	0.5555521	0.61835486
0.62549646	0.29794937	0.61162969
0.63972344	0.80858688	0.62433791
0.6603465	0.04848392	0.10931241
0.64080566	0.55931029	0.12370592
0.15065995	0.3068008	0.10513122
0.13137181	0.81291781	0.11426398
0.12749843	0.04568752	0.59603958
0.12645053	0.55182676	0.61906031
0.63253437	0.29481411	0.6094803
0.63701159	0.80594838	0.62048516
0.65730156	0.04934951	0.09881598
0.639961	0.56367769	0.12038782
0.15202065	0.30708376	0.09756742
0.12579318	0.80909697	0.10750631
0.12086964	0.03602387	0.59921659
0.13847289	0.54846663	0.62290514
0.64975312	0.29938364	0.59638278
0.6325717	0.80782613	0.6162826
0.65034433	0.05679746	0.10180553
0.64158788	0.56396417	0.10651175
0.15297863	0.30608927	0.09838609
0.1185595	0.80798968	0.09913393
0.11467094	0.02837507	0.60058814
0.13451105	0.54426643	0.62727023
0.64245461	0.30426246	0.57944822
0.62955115	0.81098384	0.62058806
0.65176522	0.0605333	0.10693686
0.65076641	0.56171349	0.10348081
0.15434372	0.30178016	0.10802254
0.1166116	0.81014281	0.09226249
0.11962675	0.03059986	0.59445098
0.12744896	0.53983983	0.63050902
0.6201289	0.30455877	0.57630682
0.63324327	0.80982585	0.63094253
0.65971118	0.0561177	0.10948458
0.64843875	0.56081644	0.11619145
0.16049761	0.29706913	0.11354443
0.13180455	0.80990965	0.09334289
0.13016652	0.03620366	0.58526367
0.13228028	0.53664864	0.6279557
0.61446704	0.30137624	0.59045018
0.63750271	0.805325	0.63487937
0.66673483	0.05034499	0.10634032
0.64212218	0.56281418	0.1185354
0.16597171	0.29618143	0.11155583
0.14322471	0.80666341	0.10628869
0.13736609	0.03844219	0.57947213
0.14116538	0.53507582	0.62514322
0.62664881	0.29596068	0.60117616
0.63566172	0.80402235	0.62847034
0.66921216	0.04957356	0.10102974
0.64482638	0.56664718	0.10792567
0.16395201	0.29955005	0.10887777
0.13786495	0.80429059	0.11621167
0.13542105	0.03506108	0.58445295
0.14649259	0.53667636	0.62745453
0.63919713	0.29488518	0.5910793
0.62670394	0.80524422	0.62098848
0.66304708	0.05433047	0.10239845
0.65141242	0.56935946	0.09871699
0.15488634	0.29973129	0.10950276
0.132945	0.80324987	0.11416964
0.12690199	0.03164571	0.59454619
0.13793259	0.53895757	0.62996849
0.63345405	0.29427734	0.58062404
0.61777701	0.80421629	0.62030394
0.65690921	0.05800497	0.10576399
0.6598615	0.5684361	0.10758886
0.1457092	0.29406512	0.11473929
0.14660479	0.80389127	0.1073623
0.1321956	0.03354906	0.60287689
0.11935741	0.53770877	0.62793483
0.62329672	0.29290046	0.58766096
0.6187942	0.7987651	0.62239932
0.65611716	0.06022123	0.10217923
0.66492461	0.56329929	0.12890241
0.15012877	0.29007381	0.11725654
0.16282322	0.8041994	0.10598069
0.14234523	0.03488361	0.60555015
0.11295981	0.5350872	0.61883114
0.62617205	0.29413776	0.59797543
0.63034627	0.79298776	0.61681697
0.65762583	0.05864485	0.09192198
0.66274726	0.56023943	0.12170639
0.15547137	0.29307877	0.1130047
0.15872336	0.80344493	0.10965969
0.14676724	0.03422138	0.60061569
0.11590085	0.53485789	0.61045175
0.63728876	0.29488728	0.60924214
0.63296765	0.79422949	0.60988606
0.65798489	0.05783661	0.08075706
0.66298565	0.56253927	0.10160951
0.14791634	0.29912615	0.10904184
0.14593251	0.80391084	0.12011005
0.14473018	0.03551527	0.59549836
0.1224068	0.53660401	0.61706511
0.64536629	0.29698615	0.61691785
0.62011783	0.79902254	0.61329223
0.65348672	0.06353848	0.08118898
0.66392343	0.56543588	0.09746164
0.14115365	0.30009744	0.11125893
0.14114921	0.80457327	0.1216316
0.14529553	0.03922642	0.5962315
0.12498083	0.53918369	0.63146721
0.63576805	0.29951952	0.61711833
0.61330549	0.80480411	0.62379655
0.65969191	0.06747051	0.09175794
0.66094446	0.56424431	0.11779933
0.13989917	0.29853003	0.11257079
0.14611096	0.80420774	0.11775087
0.14876442	0.04302421	0.60973003
0.11871282	0.5419488	0.62876829
0.61915183	0.29993001	0.62391727
0.62077044	0.80912703	0.62823223
0.66782465	0.06411039	0.09831678
0.65681042	0.55886269	0.13891957
0.14495069	0.29997075	0.10906304
0.15584627	0.80410763	0.11903446
0.14720571	0.04131634	0.63189163
0.11872459	0.54455389	0.61780955
0.62344791	0.30250058	0.63197017
0.62881875	0.80869314	0.61888564
0.66030737	0.05873492	0.09562471
0.65596001	0.56023954	0.1352456
0.14793073	0.30440113	0.10394982
0.15943685	0.80567906	0.12540082
0.14061834	0.0376356	0.63913513
0.12500086	0.54858704	0.61225888
0.6436749	0.30444958	0.63477585
0.62241992	0.80695896	0.6171045
0.65440782	0.05718262	0.09259327
0.65714298	0.56778673	0.11702017
0.14044944	0.3088721	0.10441473
0.14977089	0.8083242	0.12871448
0.1350533	0.04087518	0.62392916
0.13168946	0.55289208	0.6209527
0.65696787	0.30626023	0.63341927
0.6147327	0.80864451	0.62455314
0.6485655	0.06009227	0.09938547
0.65783655	0.56718013	0.11094197
0.13396377	0.31129037	0.1107738
0.1376379	0.8114163	0.12608075
0.13450543	0.04692495	0.61390818
0.13187259	0.55582509	0.63545266
0.652759	0.30849029	0.62604589
0.61640373	0.81142692	0.63004642
0.64967823	0.06244004	0.11599401
0.65436297	0.56497706	0.12894495
0.1335107	0.31098861	0.11866296
0.13178393	0.81352994	0.12470967
0.14088275	0.0499688	0.62592706
0.12473045	0.55871965	0.63648583
0.6397599	0.30857549	0.6212951
0.62049566	0.81137308	0.62749655
0.65365898	0.06242219	0.12706008
0.64561034	0.56322319	0.1494359
0.13421198	0.3097804	0.11978903
0.12886024	0.81435268	0.12539675
0.14163341	0.04953613	0.6434802
0.1285366	0.5612855	0.62155179
0.63692429	0.30889245	0.62626154
0.62247024	0.81073566	0.62486381
0.64774539	0.05863506	0.12696694
0.63800501	0.56361452	0.14482108
0.13440223	0.30923174	0.1150444
0.12633055	0.81539881	0.12726939
0.13587087	0.05087586	0.6374028
0.13583205	0.56319432	0.61088319
0.64106357	0.31167408	0.63691537
0.61844886	0.81347796	0.63190328
0.64048104	0.05464041	0.12254489
0.63521518	0.56856674	0.1217029
0.13529367	0.31038856	0.1171048
0.1199116	0.82000444	0.13100741
0.13288044	0.05709062	0.61778196
0.13732424	0.56259096	0.62227609
0.64119404	0.3141783	0.64158907
0.61316074	0.8177882	0.64555542
0.63823561	0.05678527	0.12489089
0.63778481	0.56663085	0.1106613
0.1367073	0.31396896	0.12737418
0.1158182	0.82529548	0.12705844
0.13300084	0.06384254	0.62002111
0.13459016	0.56240763	0.63870351
0.63339993	0.3158972	0.63135748
0.61912222	0.81955381	0.65340918
0.64286208	0.06126782	0.13597403
0.63659677	0.56284561	0.12539223
0.13490095	0.31717888	0.13105855
0.12529042	0.82628183	0.12407743
0.13448435	0.06584111	0.64005036
0.13207362	0.56687347	0.63541037
0.62933056	0.31562571	0.62414759
0.62846631	0.81709213	0.64783064
0.65062147	0.06169041	0.14276324
0.62780314	0.56457359	0.14504869
0.1277887	0.31791072	0.12639903
0.13638867	0.82386534	0.12480816
0.1299131	0.06423996	0.64369723
0.13269339	0.57141501	0.62264738
0.64383744	0.31462648	0.63103089
0.63773115	0.81916557	0.63354518
0.64513209	0.05948076	0.14384454
0.62263029	0.56835603	0.14053723
0.12168357	0.31822497	0.12449852
0.12792302	0.82208507	0.12534458
0.12537131	0.06381256	0.6275883
0.13349109	0.57488498	0.61911882
0.65407413	0.31540851	0.64503113
0.64116532	0.82594101	0.63687904
0.63021692	0.05627466	0.14391074
0.62343259	0.57077368	0.12419487
0.12440357	0.3222655	0.13181578
0.11780159	0.8252884	0.12504647
0.12858672	0.07062648	0.61772916
0.12937624	0.57854289	0.6303397
0.64770049	0.3179649	0.65188934
0.63743456	0.82935891	0.65204578
0.62014627	0.05889986	0.1465773
0.62138619	0.56843092	0.12424636
0.13148219	0.3273708	0.13935053
0.11867129	0.83306132	0.12282797
0.12960351	0.07828604	0.62948079
0.1197392	0.58174378	0.63988905
0.64045179	0.31988836	0.64211929
0.6349333	0.82771576	0.66187509
0.62134071	0.06270155	0.15248887
0.61785909	0.56512112	0.14438173
0.12922033	0.32867059	0.14061063
0.12159804	0.83838601	0.12208695
0.128534	0.07789132	0.64669268
0.1121768	0.58409182	0.6369337
0.63787084	0.32138326	0.63295822
0.63634414	0.82527545	0.65519223
0.62998478	0.06101654	0.15313259
0.61646926	0.56592612	0.1568776
0.12248789	0.32703566	0.1353205
0.12272707	0.83565425	0.1245384
0.127161	0.07303381	0.65328449
0.11338614	0.5847652	0.62901052
0.63995094	0.32257869	0.63805491
0.64048588	0.82856061	0.6395124
0.62431899	0.06044354	0.14647438
0.61506008	0.56939801	0.14180308
0.12120107	0.32467147	0.12974783
0.11911337	0.83208127	0.12510721
0.12463896	0.07283566	0.64768845
0.12195404	0.58413369	0.63232766
0.64030204	0.32443644	0.64712656
0.64418101	0.83827145	0.63512375
0.61108294	0.06551196	0.14366869
0.61852021	0.57357343	0.12514435
0.12739685	0.32586213	0.1336991
0.11670663	0.83532027	0.12852186
0.12872614	0.0776407	0.64438525
0.12848987	0.58514925	0.64702315
0.63303134	0.32770906	0.65326961
0.63921829	0.84195023	0.64195884
0.61087435	0.07205906	0.14656642
0.62424471	0.57340043	0.13070118
0.13299554	0.33036098	0.14584785
0.12018383	0.84035104	0.1331193
0.13198481	0.08279446	0.65066986
0.12665809	0.58821822	0.65160399
0.62690222	0.32899571	0.65339877
0.63345359	0.83684241	0.64556411
0.61666083	0.07278338	0.15082865
0.62048109	0.56994412	0.1436844
0.12242471	0.3331118	0.15395748
0.1238567	0.83824828	0.12966877
0.12693573	0.08207853	0.65987365
0.12545282	0.59279298	0.64016044
0.63311038	0.32740155	0.65430141
0.63735416	0.82918096	0.63827168
0.61703014	0.06716677	0.1508658
0.61793508	0.57176268	0.1386081
0.1052143	0.33187196	0.15538882
0.12226906	0.82977026	0.12767668
0.12318377	0.08178552	0.66216899
0.12631687	0.59582659	0.63278031
0.64211745	0.32961379	0.66110987
0.64384177	0.82565511	0.62637653
0.60133454	0.06389631	0.14528339
0.61875633	0.57619938	0.12133525
0.1014356	0.32825948	0.1522478
0.11192963	0.82813768	0.13560989
0.12206838	0.08556765	0.6562864
0.13055477	0.5919407	0.63574636
0.64210094	0.33194657	0.66704485
0.64757003	0.82855984	0.62678331
0.58722477	0.06930955	0.14228114
0.61681696	0.57968474	0.11937469
0.1099655	0.3262968	0.14917695
0.10391196	0.83543313	0.14619065
0.12223672	0.08700542	0.65298438
0.13956065	0.58642752	0.64554214
0.63342948	0.33280384	0.66874468
0.64231464	0.8362904	0.63753576
0.59233992	0.07830698	0.14653522
0.61665529	0.5798658	0.13204731
0.11832136	0.32791381	0.15287653
0.10765957	0.83804383	0.15546469
0.1214494	0.08689335	0.66165438
0.14129022	0.58301267	0.65313691
0.62580126	0.33544381	0.66486412
0.6357444	0.8427409	0.63573738
0.60600476	0.08231064	0.15136197
0.61819732	0.5752946	0.14329008
0.11260725	0.3272852	0.15497885
0.11781714	0.83080998	0.15763727
0.12138015	0.08373541	0.67198578
0.14046488	0.58368611	0.64856128
0.62537956	0.3354801	0.65866536
0.64295671	0.84308251	0.62464815
0.61036501	0.07739138	0.14805685
0.62366574	0.57592828	0.1407423
0.09459819	0.32314607	0.15358903
0.12512592	0.82426236	0.15905967
0.12295612	0.08419402	0.67650958
0.14348695	0.58733478	0.64390983
0.62483547	0.33563815	0.66130567
0.64686018	0.83963073	0.6211636
0.60165131	0.07139639	0.14609212
0.6270159	0.58245649	0.12920438
0.08409126	0.31698843	0.1492505
0.11976705	0.82626397	0.16583042
0.12142072	0.08961452	0.6710456
0.14570138	0.58906474	0.64938474
0.62188182	0.33609703	0.66273979
0.64098078	0.8383348	0.62804453
0.594741	0.07390945	0.1564323
0.62304582	0.58767857	0.12069457
0.09254866	0.31498127	0.14765299
0.10526722	0.83134917	0.17015285
0.11140176	0.08966297	0.66219764
0.14900452	0.58842278	0.65953112
0.61988907	0.33520081	0.65436737
0.6362143	0.84148331	0.63810395
0.60568158	0.07749352	0.16024552
0.62243764	0.58670422	0.12056229
0.10374103	0.32128014	0.15366894
0.1033847	0.83023715	0.1627302
0.09757479	0.08522588	0.66394697
0.1513123	0.58883355	0.66864287
0.61756615	0.33452337	0.64455556
0.63773935	0.84197323	0.63764677
0.62033065	0.07477109	0.15308487
0.62665704	0.58092042	0.12985689
0.09721519	0.32323906	0.15471587
0.1188115	0.82290403	0.1471052
0.09050991	0.08008458	0.66644903
0.14902638	0.59151162	0.66707673
0.61577365	0.33326508	0.63787031
0.64654812	0.83641492	0.62711271
0.61982132	0.06996565	0.14570698
0.63127054	0.57791656	0.14038914
0.07907381	0.31959001	0.15003959
0.13105784	0.81921236	0.13868933
0.09616734	0.07723279	0.65344496
0.14175743	0.59260797	0.6590143
0.60934801	0.33338319	0.63714766
0.65488993	0.83247193	0.6213688
0.60080773	0.07098612	0.14173185
0.63113359	0.5792131	0.13680078
0.07338617	0.3196494	0.14241802
0.13004561	0.82516968	0.13987062
0.10595434	0.07625058	0.6458393
0.13143636	0.58663285	0.65485811
0.60213238	0.33428729	0.63577527
0.65504207	0.83683489	0.62026111
0.58981879	0.07887567	0.14310749
0.6235197	0.57944173	0.12785602
0.08972754	0.32331813	0.13340758
0.11962781	0.83214256	0.14267033
0.10652371	0.07543315	0.64823337
0.12236852	0.57884261	0.65320269
0.60460294	0.33375965	0.62836212
0.64654943	0.84493091	0.62720671
0.60747412	0.08140233	0.14319894
0.61726041	0.57799425	0.12635819
0.11334488	0.3261869	0.12882188
0.1203014	0.82935162	0.13825939
0.10144866	0.07447583	0.65238774
0.11742602	0.57691268	0.65225979
0.61179013	0.33259975	0.62494442
0.63609383	0.84590859	0.63677112
0.62377829	0.07413973	0.13801524
0.62508014	0.5751837	0.13458238
0.11758879	0.32373727	0.13079986
0.1319826	0.82131438	0.12980984
0.10415794	0.07403311	0.65422763
0.11706333	0.58211882	0.64709895
0.61208428	0.33080691	0.62695988
0.63390809	0.83669538	0.64133425
0.61406529	0.06239112	0.13087009
0.63594043	0.57381125	0.14319079
0.10266775	0.32012034	0.13893275
0.135827	0.8186143	0.12685694
0.1183498	0.07322784	0.64854844
0.11756411	0.58587515	0.63823552
0.60476432	0.32813603	0.63148544
0.64210704	0.8293194	0.64184991
0.60357383	0.05778322	0.12590673
0.63493831	0.57579913	0.14118182
0.09010597	0.32027192	0.14359733
0.13328982	0.82574223	0.12517712
0.12362651	0.07012108	0.64252934
0.11205114	0.58275528	0.63760558
0.59924296	0.32602564	0.63023999
0.65043765	0.828999	0.63989019
0.60744606	0.06294309	0.12436598
0.62499766	0.57337104	0.13419251
0.09920045	0.3228103	0.13810856
0.13145149	0.83368901	0.12113433
0.12079159	0.06668104	0.64292662
0.10413093	0.57609922	0.64396309
0.60237758	0.3242943	0.61903502
0.64954487	0.82955506	0.63473535
0.62554262	0.06751415	0.12320048
0.61890186	0.56752083	0.13655738
0.11318346	0.32242089	0.12682659
0.13610943	0.83084512	0.11783341
0.12087858	0.06541115	0.64633168
0.10333178	0.57180894	0.64782669
0.6172811	0.32168781	0.61700055
0.64237664	0.82743818	0.629367
0.64020422	0.06472065	0.11740125
0.62565108	0.56453674	0.14217992
0.12033271	0.31778372	0.12226758
0.14787505	0.82323868	0.11674784
0.12078179	0.06600577	0.65097806
0.10922609	0.5704416	0.64906489
0.63186541	0.31904638	0.62656917
0.63921691	0.82385214	0.6285043
0.63921469	0.06281579	0.10835725
0.63453895	0.56247909	0.14062625
0.11548122	0.31491786	0.12411273
0.15385159	0.82203888	0.11926734
0.12721925	0.06652965	0.64672773
0.11115326	0.56915852	0.64131932
0.63074405	0.31706841	0.63347115
0.6398729	0.82220984	0.63341118
0.63222581	0.06686084	0.10430531
0.63138745	0.56287359	0.13075549
0.1082119	0.31686079	0.12617632
0.14696269	0.82539327	0.12022522
0.13009453	0.06322956	0.63644364
0.10905855	0.56663141	0.62746288
0.61790579	0.31671996	0.63248385
0.63686734	0.8238538	0.63406663
0.63181855	0.0694098	0.10861469
0.62302852	0.5663195	0.12256201
0.11294953	0.31868987	0.12091184
0.13334177	0.82675384	0.12126207
0.12446045	0.05999717	0.63175443
0.11227969	0.56384972	0.62432876
0.6122555	0.3197913	0.62141713
0.62786975	0.82345958	0.62991478
0.64031537	0.06380069	0.1135542
0.6229254	0.56825731	0.12134074
0.1167604	0.31669549	0.11534567
0.12360463	0.82038601	0.125753
0.12135818	0.05976601	0.63482577
0.12069412	0.56277685	0.62493708
0.6174597	0.32033733	0.61755295
0.62082156	0.81885304	0.62659735
0.64792141	0.05686163	0.10860904
0.63595458	0.56878187	0.12322039
0.11653803	0.3129552	0.12246827
0.12686157	0.81316734	0.12751552
0.12426936	0.05928357	0.64086473
0.12805775	0.56405113	0.62488274
0.62654966	0.31438133	0.62997424
0.62404643	0.814816	0.6289526
0.63930558	0.05563899	0.10161063
0.64231674	0.56675795	0.12671124
0.12075156	0.30974012	0.12952742
0.13627182	0.81520786	0.12354113
0.13164509	0.05932687	0.63576762
0.1288762	0.56586931	0.62491224
0.62766585	0.30680445	0.63492138
0.62731817	0.81510214	0.63505452
0.62751024	0.06292231	0.10156421
0.62902033	0.56427678	0.12673027
0.12831411	0.31028405	0.12516141
0.13346227	0.82158401	0.11778405
0.13150702	0.05816138	0.61981847
0.12017019	0.56785918	0.62211323
0.6236769	0.30579922	0.62554965
0.62315085	0.8179461	0.62845809
0.62770634	0.06739392	0.10721957
0.61850575	0.56472557	0.1226444
0.138424	0.31225848	0.1171491
0.12280744	0.826101	0.11673218
0.12392628	0.05656077	0.6119639
0.11659264	0.56832902	0.62054971
0.63065295	0.3103558	0.61306311
0.61559557	0.81777527	0.62129062
0.63898927	0.06340212	0.11285872
0.62694308	0.56724813	0.11798905
0.14148103	0.31119315	0.11444585
0.11852604	0.82584932	0.12176409
0.120623	0.05695524	0.6188136
0.12533268	0.56421327	0.61974523
0.64238425	0.31232543	0.61187444
0.60986852	0.81165468	0.62734764
0.64919635	0.05710945	0.11268388
0.63707274	0.57086397	0.11293548
0.13604068	0.3085155	0.11671311
0.11889791	0.81906572	0.12547677
0.12245736	0.05721925	0.62078373
0.13277613	0.55938223	0.61880175
0.64725362	0.30718694	0.62157104
0.6124199	0.80648291	0.63900052
0.64147856	0.0567405	0.11051444
0.63439877	0.57127204	0.10918628
0.13368201	0.30613869	0.11707632
0.11936334	0.81323508	0.12240844
0.12899009	0.05631366	0.61058162
0.12942522	0.55722728	0.62057126
0.63803389	0.3001764	0.63102477
0.6206095	0.80963386	0.64737271
0.62345305	0.05987634	0.11609743
0.6236894	0.56802374	0.10760158
0.13832583	0.30662841	0.11317375
0.11219968	0.81355404	0.11472943
0.13455108	0.0540676	0.59696466
0.11989199	0.55804299	0.61777179
0.62402393	0.2993248	0.62947314
0.62666092	0.81600413	0.64226863
0.62348008	0.06131956	0.12639518
0.62074642	0.56678437	0.10614789
0.1409601	0.30947154	0.11127671
0.1043611	0.81683582	0.1091984
0.1315185	0.05194655	0.59461221
0.11411303	0.56035991	0.61610203
0.62488137	0.30723804	0.62091072
0.63032539	0.8142509	0.63056861
0.63456166	0.05647519	0.13142139
0.62930818	0.56630272	0.10621214
0.1406693	0.30862611	0.1176092
0.1085568	0.81844898	0.11196774
0.12995768	0.05203956	0.6021345
0.11990186	0.55896481	0.62023412
0.64107792	0.3118168	0.614414
0.63078967	0.80854991	0.62607814
0.63890026	0.05114937	0.12031505
0.6356274	0.56492216	0.10621645
0.14164652	0.3053647	0.12759859
0.11810242	0.8129678	0.11984597
0.13334972	0.05326614	0.60773664
0.13237067	0.55515643	0.620589
0.65340704	0.305224	0.6179009
0.63044471	0.80784261	0.63451761
0.63244176	0.0531794	0.10888236
0.63189368	0.56418618	0.10756785
0.1448037	0.30421556	0.13303729
0.12669376	0.80926472	0.12333632
0.13253161	0.05393376	0.60502748
0.1319398	0.55340734	0.62381767
0.65455382	0.29739621	0.62827806
0.63365071	0.81315752	0.64457779
0.62603354	0.06141554	0.11424539
0.62315725	0.56102096	0.11385416
0.14336754	0.30887613	0.13008823
0.1326317	0.81283405	0.12392357
0.12519439	0.05148479	0.6007371
0.11834581	0.5546316	0.62229418
0.64570174	0.30024952	0.63085035
0.63593058	0.81591874	0.6390301
0.63053223	0.06472836	0.1259292
0.62547059	0.5580688	0.11566782
0.13436911	0.3150239	0.1219152
0.13297804	0.81544908	0.12797502
0.11764529	0.04591047	0.60524765
0.11054245	0.55821883	0.61743628
0.64185411	0.31053981	0.6277423
0.63458482	0.80912368	0.62028193
0.64220904	0.05997434	0.12943027
0.64040123	0.5576169	0.11127032
0.1322787	0.31518693	0.1117464
0.12757164	0.81424008	0.13534632
0.12481803	0.0428755	0.61783828
0.11473169	0.5605604	0.62045237
0.65296256	0.31478976	0.62780695
0.62931595	0.80131973	0.60873025
0.64383752	0.05303041	0.12264747
0.65351449	0.55766776	0.11598936
0.14063115	0.31003114	0.10531217
0.12150103	0.8075185	0.14111384
0.14256222	0.04530578	0.62304161
0.12515706	0.5581496	0.62851142
0.65848809	0.30766907	0.62895105
0.62521424	0.80811448	0.6124675
0.63506453	0.056533	0.1141854
0.65585276	0.55704586	0.12333641
0.14823681	0.30676506	0.10243239
0.12066671	0.80391978	0.13743078
0.14549995	0.04817594	0.61965685
0.1352639	0.55388687	0.63786458
0.65092411	0.29750886	0.63242238
0.62694017	0.82396333	0.62059594
0.63378654	0.06033893	0.11557263
0.64733699	0.55590997	0.13305945
0.14709951	0.31028027	0.10063953
0.12738405	0.80913995	0.12592451
0.14478069	0.04831567	0.61787363
0.14019018	0.55188317	0.6403095
0.64213088	0.2948986	0.62698576
0.6330842	0.8356402	0.61557869
0.64830528	0.05906691	0.12063585
0.64427907	0.55489375	0.14433672
0.13473828	0.31246178	0.1083784
0.13428485	0.81573272	0.11938055
0.13622561	0.04676844	0.6209336
0.1425478	0.55486977	0.63657781
0.64185409	0.30388083	0.62144957
0.63856515	0.8357532	0.61085317
0.66385215	0.05509132	0.12196277
0.65614971	0.55603777	0.14559005
0.12883846	0.30863011	0.11409749
0.12603361	0.82106859	0.12957821
0.13617086	0.04560146	0.62880711
0.14368184	0.55955335	0.63229144
0.65231461	0.31399185	0.6286772
0.63586155	0.82633747	0.62145695
0.66573945	0.04973452	0.1148
0.66657762	0.56246537	0.14152178
0.13943652	0.30830846	0.11868219
0.11958754	0.82223172	0.13991674
0.14816091	0.04910007	0.63094107
0.14881077	0.5575519	0.62841797
0.65795414	0.31500596	0.63791001
0.62599886	0.81685366	0.63539019
0.6588106	0.05198888	0.10987839
0.65974909	0.57087471	0.14070094
0.15323033	0.31460444	0.12441832
0.12793708	0.82078782	0.14002011
0.15036451	0.05501234	0.62173844
0.15555764	0.55159677	0.63056564
0.65910563	0.30842256	0.64084707
0.62701275	0.81414596	0.6409656
0.65535929	0.06006146	0.1185938
0.64073264	0.57390357	0.14744657
0.15777985	0.32036834	0.12293836
0.13513834	0.82040114	0.13578096
0.14812331	0.05833666	0.62166559
0.15366832	0.5533133	0.63460632
0.65638942	0.30504772	0.63973186
0.63813513	0.82222155	0.62975485
0.65587326	0.06600476	0.12608094
0.63755947	0.57182809	0.14801798
0.15517385	0.31928262	0.11569689
0.13549032	0.82049764	0.1320402
0.14467231	0.05845085	0.63333266
0.15051813	0.56011196	0.6343053
0.64673331	0.3119161	0.63423557
0.64352053	0.82985185	0.61779068
0.65989868	0.06597582	0.12301379
0.65513409	0.56996587	0.14705892
0.15446174	0.31288931	0.10838699
0.13081608	0.82202783	0.13356092
0.14032848	0.05559923	0.64626024
0.15126942	0.56743917	0.64052338
0.63849281	0.31750598	0.62992299
0.63485621	0.82801143	0.62866541
0.66397108	0.06208566	0.12255783
0.66164247	0.571656	0.15125001
0.15783745	0.30611917	0.11121978
0.13059274	0.82528181	0.13962708
0.13589589	0.05812747	0.64914974
0.15045967	0.56566198	0.64826393
0.63364862	0.31493039	0.63161585
0.62595777	0.81803216	0.64208446
0.66338567	0.06265731	0.12631007
0.65123288	0.57627684	0.1494709
0.16057632	0.30416174	0.12163335
0.13810028	0.82644887	0.14026169
0.1275154	0.06412945	0.64067352
0.15322507	0.55979123	0.65251613
0.63868296	0.31385988	0.63512485
0.63051574	0.81202135	0.64209553
0.66306468	0.0671868	0.13644206
0.6445926	0.57877009	0.14432093
0.15234162	0.30880452	0.12925138
0.13776253	0.82424118	0.1315533
0.12193156	0.0677788	0.63679571
0.15148604	0.56273071	0.65367111
0.65073817	0.31538938	0.6422813
0.64071442	0.81572963	0.63605187
0.65932885	0.07054553	0.14756687
0.64645596	0.57690197	0.14065229
0.14001155	0.31534859	0.13559835
0.13197863	0.82448843	0.11938451
0.12432677	0.06753838	0.64098676
0.1435952	0.57065261	0.64918815
0.6478888	0.31802047	0.64669456
0.63926554	0.82231977	0.63411187
0.65044176	0.07027453	0.14619703
0.65508477	0.57221609	0.13884284
0.14264391	0.32207865	0.13886106
0.12777976	0.82497229	0.11310388
0.13325007	0.06235635	0.64234533
0.13659262	0.57671287	0.64443571
0.63819126	0.31991226	0.64522806
0.62983515	0.82195495	0.64141629
0.6459006	0.06616403	0.13882853
0.65457846	0.57045625	0.13988245
0.15016897	0.3243195	0.14106911
0.12927246	0.82299801	0.11287088
0.13981862	0.06389513	0.63804273
0.13101112	0.57662762	0.64462365
0.63539382	0.31421239	0.64621852
0.62490118	0.81481371	0.6499316
0.64729214	0.06567254	0.13460383
0.64314285	0.57418314	0.13923168
0.15135576	0.32188653	0.14363723
0.13861951	0.82103223	0.1155595
0.13063925	0.06849314	0.63171745
0.12735337	0.57327525	0.64565385
0.63747457	0.31194856	0.64545762
0.63035071	0.81166294	0.6462172
0.64489467	0.07095159	0.13900324
0.63376405	0.5761013	0.13782856
0.14480019	0.32248329	0.1413371
0.14551418	0.82227154	0.11776736
0.12156963	0.068195	0.63559784
0.1270197	0.57237316	0.6429455
0.63940998	0.31939151	0.64597042
0.63985977	0.82011342	0.63768382
0.6320426	0.07526843	0.14909187
0.63343484	0.57307176	0.13815758
0.13896534	0.3252202	0.13741806
0.14325384	0.82576982	0.114613
0.12260681	0.06647863	0.64674701
0.12702883	0.57615153	0.63366996
0.63717755	0.32337961	0.65199237
0.64140898	0.83014952	0.63771947
0.62216662	0.0730674	0.15376685
0.63794956	0.57132979	0.13763433
0.14088439	0.32431631	0.13745154
0.13821718	0.82737873	0.10967351
0.12400734	0.065781	0.64905068
0.12689205	0.58016522	0.6303177
0.63425716	0.32027369	0.65188457
0.63713586	0.82910969	0.64722378
0.62298795	0.06563646	0.14834826
0.64100545	0.57220232	0.1387736
0.14097651	0.32110624	0.14011391
0.13080494	0.82680426	0.11312578
0.12507396	0.06758742	0.6385927
0.12710366	0.57807975	0.63464252
0.63649369	0.31672358	0.65340891
0.63710415	0.82100792	0.65365772
0.62489974	0.06126067	0.13795216
0.6422234	0.57243392	0.13814491
0.13413119	0.31939716	0.14524185
0.12631212	0.82534091	0.11969
0.12773844	0.07053176	0.62872917
0.12787102	0.57248635	0.63523318
0.63986413	0.31791689	0.65442889
0.6415338	0.81945652	0.64456299
0.62683497	0.06201223	0.13542119
0.64163444	0.56852692	0.13227133
0.12403298	0.32395912	0.14863723
0.12709654	0.82473657	0.11767915
0.13375146	0.07079683	0.63115342
0.12830628	0.57296616	0.63082041
0.64284141	0.3225253	0.64939059
0.64792178	0.82629849	0.63261638
0.62434598	0.06481561	0.14413001
0.63706303	0.56332149	0.13089343
0.11640879	0.32630486	0.1466413
0.12500928	0.82734681	0.11608266
0.13695774	0.06935056	0.64281885
0.12599857	0.57749628	0.62639832
0.63953924	0.32290042	0.64817841
0.64915717	0.83200782	0.63257635
0.61829547	0.06542119	0.14865792
0.63225466	0.56089614	0.13034272
0.11469278	0.32194415	0.14233927
0.12084466	0.83072271	0.11736719
0.12709103	0.06677183	0.64942738
0.12580175	0.5784457	0.62816747
0.63208994	0.31725919	0.64728512
0.6437317	0.82707364	0.63558868
0.62021709	0.05924892	0.13772886
0.62811395	0.56235008	0.12414673
0.1141886	0.31829677	0.1363724
0.11847623	0.83124697	0.12058669
0.11598002	0.06539439	0.6417169
0.13086132	0.57254365	0.63142115
0.63235356	0.31186291	0.64526712
0.63680754	0.82160069	0.63530062
0.62734076	0.05736759	0.12920243
0.62256188	0.56630409	0.12010945
0.10882163	0.31781518	0.13136753
0.11924423	0.83122123	0.13045954
0.11640555	0.06901931	0.63020388
0.13473461	0.56693009	0.62395316
0.63757747	0.31176955	0.64622639
0.63280067	0.82550492	0.63239311
0.6294008	0.06350516	0.13669559
0.61906632	0.57014673	0.12136064
0.10207243	0.3188993	0.12946374
0.12170595	0.82890155	0.13692323
0.12197428	0.07242946	0.63193456
0.13385955	0.57034397	0.61133244
0.63824105	0.31783817	0.6453082
0.63008426	0.83095813	0.6321514
0.62033205	0.06465541	0.14633356
0.61818175	0.57070658	0.12049165
0.10180588	0.31832104	0.12999194
0.11667788	0.82509654	0.13705994
0.1286728	0.07076113	0.64347185
0.12999526	0.57882189	0.61067046
0.63465262	0.32231708	0.64366812
0.62303175	0.82910862	0.6377139
0.60484678	0.06001684	0.14333106
0.61822652	0.57047624	0.11678469
0.10794008	0.31347498	0.13104843
0.10822299	0.82397707	0.13466638
0.12679327	0.0667458	0.64558911
0.12682031	0.57974047	0.62478618
0.62445076	0.31962873	0.63844118
0.61444617	0.82121792	0.63993147
0.59683338	0.0539293	0.12565261
0.61864182	0.57161843	0.11511083
0.10758394	0.30892195	0.12917403
0.10796913	0.82104529	0.13268426
0.11967977	0.06311845	0.63881318
0.12774637	0.57443465	0.63731337
0.61914392	0.31662002	0.62909778
0.61447214	0.81655165	0.63118172
0.60261774	0.05489	0.11127398
0.61690043	0.57161127	0.11675546
0.10376899	0.30806688	0.12797408
0.11212437	0.81719999	0.13726004
0.11711362	0.06584409	0.63256614
0.12894421	0.56882049	0.63465201
0.62200569	0.31873331	0.61846198
0.62051417	0.82372296	0.62042577
0.62100681	0.06314616	0.11753135
0.61029453	0.57157611	0.11910338
0.10297007	0.31253256	0.1218565
0.11827025	0.8185926	0.14256527
0.11730047	0.06743607	0.63489852
0.12851971	0.56963336	0.62632947
0.62748886	0.32342134	0.61109487
0.62715633	0.83142453	0.61903967
0.62772077	0.06920323	0.12983219
0.59814221	0.57103704	0.11594666
0.09928009	0.31959254	0.11329885
0.11622759	0.82265667	0.1457524
0.11698188	0.06507919	0.6445808
0.11966297	0.57523219	0.62881398
0.62514761	0.32190726	0.60995706
0.62810027	0.82926611	0.63282521
0.61136039	0.06798174	0.12748819
0.58909252	0.57027098	0.10958817
0.09405976	0.31956932	0.10975315
0.10646056	0.82396272	0.14047989
0.1143896	0.06518123	0.64996053
0.11137422	0.57769268	0.63887544
0.61429502	0.31779758	0.61288496
0.62378792	0.82119731	0.64495919
0.59971837	0.06113076	0.10941933
0.58864954	0.57107401	0.10830343
0.09070477	0.31180015	0.11137053
0.10615739	0.82027895	0.12775626
0.10931388	0.0665608	0.64543707
0.10985951	0.57302272	0.6428475
0.61382094	0.31889168	0.61771437
0.62038769	0.81900538	0.6356429
0.60660085	0.05942561	0.09042524
0.58931646	0.57124927	0.11078143
0.09554045	0.30795378	0.11635259
0.11104105	0.81628671	0.13247346
0.10702877	0.06836561	0.64231678
0.10225944	0.56620409	0.63278668
0.61684683	0.32263215	0.61520983
0.62618492	0.82742673	0.61408983
0.6101099	0.06406965	0.08822074
0.58967179	0.57321386	0.1123332
0.10757695	0.31146031	0.11800254
0.11465689	0.8133424	0.14045427
0.1080641	0.06778865	0.63998796
0.09273731	0.56690346	0.6218298
0.61371591	0.32498625	0.60669755
0.63636716	0.83801683	0.60468961
0.60549078	0.06920747	0.10666326
0.59221392	0.57582569	0.10820376
0.11307768	0.31907285	0.1157428
0.11430003	0.81148979	0.12927518
0.1164037	0.06309924	0.64051821
0.08847212	0.57561725	0.6303395
0.60536802	0.32373398	0.60089615
0.63169611	0.84251298	0.61724381
0.59864793	0.07136962	0.12177979
0.59974525	0.57147251	0.10036222
0.11068142	0.31557604	0.11718355
0.10935939	0.813507	0.12719413
0.11949371	0.06087635	0.64478358
0.08849956	0.57522306	0.65095602
0.59618923	0.32323967	0.59703846
0.62788041	0.83815051	0.63198715
0.59735688	0.07004045	0.11337241
0.60871841	0.56665154	0.10282303
0.10032123	0.31000355	0.11980389
0.10953913	0.81775553	0.1341082
0.11370321	0.06158801	0.65093704
0.09743142	0.56671407	0.65183521
0.59742627	0.32601413	0.59807386
0.63251122	0.82913533	0.62443407
0.61371425	0.06697745	0.09287462
0.61359272	0.5653279	0.11280975
0.08747007	0.31294945	0.11990683
0.1141183	0.82169317	0.13771912
0.11240286	0.06421505	0.64804964
0.10122806	0.56094249	0.63604768
0.60898895	0.32735877	0.60452436
0.63804535	0.82133493	0.61037268
0.62714064	0.06455982	0.08523772
0.61289201	0.56728325	0.11045649
0.08394172	0.31491895	0.11396272
0.11935467	0.82354242	0.13712446
0.11285717	0.06794944	0.63341697
0.09272767	0.56349194	0.63155676
0.61988406	0.32626066	0.60473314
0.64135849	0.82071363	0.61442226
0.62463161	0.06377943	0.10653069
0.61203537	0.57276953	0.10770553
0.0940302	0.31735338	0.10643523
0.12355174	0.82020058	0.12710187
0.10980912	0.06737094	0.61946234
0.08680525	0.57105575	0.6373412
0.62080454	0.32589907	0.59987658
0.63460651	0.82363522	0.6235533
0.62094249	0.06456987	0.12724057
0.61421022	0.57127464	0.11055098
0.10731612	0.31576021	0.11282384
0.12510439	0.81889408	0.12338716
0.10330002	0.06261902	0.61553732
0.09087926	0.57369446	0.6453907
0.61162063	0.32665501	0.60145787
0.62372575	0.82646518	0.62730132
0.62006879	0.06216171	0.12219061
0.62098602	0.56609841	0.11438618
0.10858402	0.3120553	0.12286249
0.12705352	0.82070498	0.12688616
0.10369463	0.06031323	0.62063647
0.0997116	0.56827317	0.6402459
0.59904304	0.32582518	0.60634426
0.61361535	0.82707512	0.6174803
0.62322126	0.05783252	0.11018729
0.63107479	0.5642235	0.11414437
0.10202542	0.31420417	0.12197396
0.13101932	0.82061128	0.12936196
0.11423408	0.0617006	0.62463883
0.10782245	0.56364225	0.62624105
0.5983218	0.32192753	0.61082925
0.61175612	0.8250638	0.60949688
0.62929008	0.05770013	0.10371336
0.63833759	0.56633432	0.11167953
0.09983194	0.31415109	0.11676286
0.1326515	0.82071935	0.13163768
0.11920535	0.06442645	0.61708069
0.10870805	0.56563306	0.62249821
0.60045237	0.31614411	0.61186485
0.61920109	0.82581923	0.62097965
0.63435836	0.06093277	0.1103837
0.63565607	0.56970302	0.11563878
0.10849494	0.31162581	0.11278427
0.13462572	0.81751555	0.1325532
0.1158735	0.06483388	0.60625989
0.10844799	0.57060682	0.62909507
0.60648268	0.31221536	0.6082242
0.62896097	0.82828209	0.63019745
0.63838177	0.06210918	0.11814237
0.62479562	0.56925721	0.12253194
0.11353414	0.31044709	0.11333531
0.13719472	0.81789778	0.13639145
0.1085255	0.06232455	0.60907826
0.11267274	0.57170085	0.63839589
0.60584308	0.31177851	0.60823623
0.63713368	0.82757847	0.62413863
0.63771248	0.06054276	0.10885918
0.62037713	0.56528165	0.12325171
0.10759388	0.30991098	0.11803944
0.13998901	0.82249975	0.14126291
0.10569022	0.06111201	0.61869086
0.11594721	0.56954179	0.6413423
0.59731562	0.31315675	0.62008333
0.63832905	0.82389296	0.61671628
0.63480891	0.05812363	0.09752494
0.62621054	0.56383842	0.11892414
0.10612948	0.31164558	0.11762882
0.14099163	0.8184244	0.13754552
0.1132193	0.06250219	0.62366691
0.12018537	0.56912298	0.63313042
0.59705789	0.31288319	0.62829995
0.63691727	0.81998437	0.61663969
0.63209853	0.05944259	0.10189372
0.6328863	0.56723838	0.11559925
0.1136956	0.31255018	0.1130776
0.1355397	0.8148939	0.13145292
0.11542671	0.06486394	0.61702374
0.12382686	0.57063825	0.62523927
0.60261574	0.3120087	0.62523007
0.63894902	0.81856234	0.62586916
0.62913587	0.06377169	0.11761312
0.62536451	0.57225066	0.11695433
0.12238265	0.31102771	0.11164342
0.13353843	0.81640094	0.12922085
0.11027012	0.06482739	0.60947754
0.12483196	0.57246039	0.62847141
0.60547649	0.31187218	0.61903015
0.63712505	0.81962261	0.63043487
0.62945512	0.06457259	0.12278701
0.61863468	0.57347327	0.12149438
0.12542017	0.30999662	0.11394295
0.13684978	0.81887423	0.13092203
0.111525	0.06154923	0.61555143
0.12792694	0.57087455	0.63358571
0.60486058	0.3128445	0.61774887
0.63314863	0.82171722	0.62662078
0.63118026	0.06278083	0.11148412
0.62613042	0.56973083	0.12312235
0.12110665	0.30744427	0.11759013
0.13992366	0.81961772	0.13273505
0.11861749	0.05928143	0.62537212
0.12741285	0.56589239	0.63109292
0.60096099	0.31387626	0.62260753
0.63239657	0.82143949	0.6248851
0.63349151	0.06413133	0.10460892
0.6298149	0.56761315	0.12040204
0.12210691	0.30756531	0.11917439
0.1402045	0.81516624	0.12705463
0.12683158	0.06074556	0.62680213
0.12312116	0.56325307	0.62574044
0.60466884	0.31333798	0.63263346
0.63416887	0.81678271	0.62978669
0.63628975	0.06901771	0.11143131
0.63127385	0.5713244	0.11493096
0.12900832	0.31142974	0.1171177
0.1354337	0.8109333	0.1195441
0.12751109	0.06263699	0.62038321
0.11974512	0.56481976	0.62456145
0.61788517	0.31176809	0.63601765
0.63771686	0.81429536	0.63381266
0.63619877	0.07066917	0.12144836
0.62816067	0.57277679	0.1111701
0.13289907	0.31436514	0.11778327
0.130183	0.8116061	0.12050633
0.12134233	0.06071386	0.61482401
0.12002586	0.56573562	0.62676203
0.63496052	0.31160053	0.63360278
0.63512819	0.81745276	0.63350402
0.63464721	0.06441617	0.12639976
0.62568303	0.57028353	0.11623455
0.13128344	0.31947298	0.12528461
0.12448253	0.81685386	0.12477205
0.12073487	0.05617966	0.62399044
0.12295112	0.56376105	0.62690482
0.64762509	0.31216099	0.63499144
0.63006916	0.81954687	0.63141972
0.63225299	0.05616066	0.12272212
0.63426739	0.56768759	0.12342
0.1290195	0.32030745	0.13267241
0.11747389	0.82128733	0.11851497
0.12944036	0.05446254	0.63650361
0.12348353	0.5608003	0.62003603
0.65280894	0.31164468	0.63622643
0.62790407	0.81831828	0.63198568
0.62972759	0.05298089	0.11942182
0.64336956	0.5683525	0.12977381
0.1298615	0.31817484	0.12974674
0.1160956	0.82006333	0.1046452
0.13919677	0.05684214	0.63836846
0.12160299	0.55876933	0.61356903
0.65463995	0.31228357	0.63599368
0.62575803	0.81675752	0.63558278
0.63286613	0.05729678	0.12949482
0.64604173	0.56992118	0.13419588
0.13890873	0.32296895	0.12584426
0.1218006	0.81936955	0.10113904
0.14319848	0.05731889	0.63344758
0.12212645	0.55721952	0.61499738
0.65749982	0.31305946	0.63305253
0.62520577	0.8180429	0.6365328
0.63363214	0.06686623	0.14151436
0.64645796	0.56832625	0.13261494
0.14938739	0.32384815	0.1260906
0.12575328	0.82459731	0.10856233
0.13995088	0.05431713	0.62796474
0.13001617	0.55626819	0.62103012
0.66297609	0.31280997	0.63107183
0.62829996	0.82157052	0.63544289
0.64274505	0.0689419	0.14838153
0.64550342	0.56615195	0.13507745
0.15049532	0.32035996	0.12856815
0.12553313	0.83161253	0.11585332
0.14234661	0.05091272	0.63314711
0.14057762	0.55836362	0.62787478
0.67211815	0.31260047	0.64071474
0.62942025	0.82228344	0.64098982
0.6498869	0.06133317	0.15255993
0.64654296	0.56584651	0.13547189
0.14346359	0.31638146	0.12780797
0.11577758	0.8361471	0.11589087
0.15229799	0.04990243	0.64542955
0.14432085	0.56148041	0.63186081
0.68023794	0.31251412	0.64830926
0.62882439	0.81884287	0.64874088
0.64864195	0.05916908	0.1541572
0.65039413	0.56728123	0.13021927
0.14550918	0.3135954	0.12790967
0.10688062	0.83442113	0.11292269
0.15456136	0.05276363	0.64973117
0.14570563	0.56404594	0.63239397
0.67913301	0.31398237	0.64897029
0.62807217	0.81559409	0.64824241
0.6519633	0.06237584	0.15564368
0.65297186	0.56961148	0.13290501
0.15607223	0.31441418	0.13245361
0.10898046	0.83139411	0.11149166
0.15212443	0.0562912	0.6482279
0.14911812	0.56504172	0.64101249
0.67837894	0.31453539	0.64912038
0.62838495	0.81856719	0.64426237
0.65709034	0.06634393	0.15570986
0.65350271	0.56998623	0.1406023
0.16375027	0.31841297	0.14178572
0.10585482	0.83400741	0.11960551
0.15349128	0.05711087	0.64539873
0.1540882	0.5672318	0.64911681
0.68169858	0.31144053	0.6468649
0.63298977	0.82429133	0.64117012
0.65855102	0.06634739	0.1545841
0.64644818	0.56946283	0.14227883
0.16734028	0.32399509	0.15032867
0.10752537	0.83939619	0.13343171
0.15715481	0.05757427	0.64365645
0.15511181	0.57288009	0.64226947
0.68252942	0.30703019	0.6549187
0.63943167	0.82386641	0.64851865
0.65332544	0.06209451	0.15424781
0.64331064	0.56906375	0.14343906
0.17016859	0.3285866	0.15290749
0.11871844	0.83840548	0.13950257
0.16126966	0.05809838	0.64545052
0.14770175	0.57832298	0.63334963
0.67298527	0.30525622	0.6679584
0.63666713	0.81806692	0.66121537
0.64713738	0.06129246	0.14769246
0.65148071	0.57189229	0.14362772
0.17203859	0.32728153	0.14576783
0.13270167	0.828945	0.1294029
0.16230999	0.06139991	0.64273706
0.139606	0.5789289	0.62884088
0.66821779	0.31296454	0.67121248
0.63128309	0.81575967	0.66557749
0.65039339	0.06556813	0.14660739
0.65315789	0.57613115	0.14151737
0.17342384	0.32103817	0.14124272
0.14607178	0.82616317	0.11545038
0.16249111	0.06912929	0.64799985
0.14172917	0.57360943	0.63225076
0.67309294	0.32284743	0.66853351
0.6305081	0.81755776	0.65340378
0.65654949	0.06926696	0.15007847
0.65037361	0.57530654	0.14419268
0.1675168	0.31363081	0.14269329
0.14273	0.82992628	0.113153
0.16299728	0.07501927	0.65182285
0.15331348	0.57097668	0.64536298
0.67197837	0.32527495	0.66841642
0.6320405	0.81929196	0.63896452
0.65582557	0.06904482	0.14891444
0.6490613	0.5695545	0.14927161
0.16490143	0.31216688	0.14840733
0.13044118	0.82535856	0.12635274
0.16235472	0.07522455	0.64530097
0.16445869	0.57885509	0.65199934
0.66681917	0.32021534	0.67043712
0.6309037	0.81750016	0.63774108
0.64536091	0.06561504	0.15329619
0.64459026	0.56647323	0.15316349
0.17166945	0.3164394	0.15165433
0.12721972	0.82184156	0.13629274
0.15837388	0.07027032	0.64887297
0.16393589	0.58209598	0.65522577
0.66692591	0.31382904	0.67243637
0.62771058	0.81656776	0.65398733
0.63223534	0.06433667	0.15703362
0.65402161	0.57090086	0.15528651
0.17439872	0.32005428	0.1375689
0.13583583	0.82096266	0.1282443
0.14924248	0.06791864	0.65662999
0.1569069	0.5776046	0.65471401
0.66908275	0.31185671	0.67060007
0.62907487	0.82177105	0.66713725
0.63420357	0.06919431	0.15568222
0.66289942	0.57543775	0.15483122
0.16718622	0.32034159	0.12973818
0.14985562	0.8210986	0.11640285
0.1438716	0.07338396	0.65662806
0.15502275	0.57676753	0.65138874
0.66901118	0.31276027	0.66540021
0.6357257	0.82708162	0.6617292
0.64408946	0.07221505	0.15614329
0.65353782	0.57414304	0.15277968
0.15786974	0.31794348	0.14303342
0.15056286	0.82241632	0.1185283
0.14513289	0.07996146	0.65009831
0.15717225	0.5777771	0.64667449
0.66866321	0.31259747	0.66097587
0.63581097	0.82509022	0.64618283
0.6434749	0.06889923	0.16293653
0.64629561	0.56990872	0.15236112
0.14944094	0.31894173	0.15076988
0.13939916	0.82178549	0.13389246
0.14169821	0.07627027	0.64230196
0.15446994	0.57752854	0.63572863
0.67125514	0.31151657	0.66240918
0.63029337	0.81770794	0.64065761
0.63521127	0.06273215	0.17509129
0.6530473	0.56958417	0.15412485
0.14594403	0.32090896	0.14564239
0.1267808	0.81903154	0.14080882
0.13269717	0.0668616	0.64694228
0.14970732	0.57473937	0.62753335
0.67527184	0.31292691	0.66356306
0.62437794	0.81576498	0.6487906
0.63354861	0.05944739	0.17974761
0.66620264	0.57145298	0.1574712
0.14576224	0.31942119	0.13536919
0.12243491	0.81792632	0.13510341
0.12929914	0.06208507	0.66025279
0.14866116	0.57065577	0.63032169
0.67376575	0.31769481	0.65553754
0.62753027	0.82231884	0.65455255
0.64292784	0.06151046	0.17166328
0.67232344	0.57135033	0.15867251
0.1464338	0.31934868	0.13349166
0.12533792	0.8220746	0.12994407
0.13361998	0.06727448	0.66814332
0.15240586	0.57009225	0.63334923
0.66517003	0.31998433	0.65043252
0.63753523	0.82930719	0.64756057
0.64896086	0.06295568	0.16276058
0.66110771	0.57045403	0.15465659
0.1454066	0.31941226	0.14539782
0.12972317	0.82744864	0.13222156
0.13991891	0.0719564	0.66527191
0.15893093	0.57163476	0.63759025
0.65470049	0.31636263	0.65534447
0.64475533	0.83101707	0.63813042
0.64662351	0.06025667	0.16264699
0.6451846	0.56921003	0.14856172
0.14004496	0.31829995	0.14860829
0.12243136	0.82949754	0.13568324
0.14077565	0.06519696	0.65350309
0.15703393	0.57347016	0.64447255
0.65606478	0.31445341	0.6602335
0.64407301	0.8286326	0.63437647
0.6419418	0.05783709	0.17175455
0.6435063	0.56892393	0.14208522
0.13511889	0.31744133	0.13753399
0.11148446	0.82929453	0.13081999
0.13421545	0.05684257	0.64065941
0.14689982	0.57269956	0.64966318
0.66226746	0.31847718	0.66152659
0.64071366	0.82509558	0.63451225
0.64108461	0.05891484	0.17095072
0.65292145	0.57091744	0.14022758
0.13498401	0.31769557	0.12839362
0.11279481	0.8290132	0.12258166
0.12800095	0.06198058	0.63558224
0.14007622	0.57047782	0.65337799
0.65933194	0.32278235	0.65631755
0.63983477	0.82362906	0.63159145
0.6451729	0.06270302	0.15754193
0.65690662	0.57227549	0.14163865
0.13643962	0.32000638	0.12654887
0.11909731	0.83068277	0.12044132
0.13032924	0.07038156	0.6342763
0.14129577	0.57060284	0.64982641
0.64358184	0.32234095	0.64851567
0.64208197	0.82367389	0.62368486
0.64425188	0.06468509	0.14722886
0.64465818	0.57146655	0.13685527
0.1343966	0.32183483	0.13286993
0.1217587	0.83389778	0.12527592
0.1348025	0.06789344	0.63123246
0.13843655	0.57036868	0.64088607
0.63224069	0.31850053	0.64902325
0.64182368	0.82421469	0.62127107
0.63738437	0.06315759	0.14482142
0.63130589	0.56800273	0.13351116
0.1325045	0.32263138	0.13639959
0.1212951	0.83329307	0.13203251
0.13306502	0.05763905	0.62476112
0.13120113	0.56981771	0.63640302
0.63263754	0.31683889	0.65730823
0.63708057	0.82562799	0.63021696
0.6369116	0.06177482	0.141816
0.6292496	0.56583025	0.13375689
0.12474229	0.32311059	0.12975866
0.12187591	0.8285747	0.1301711
0.12876237	0.0555286	0.62402207
0.12587279	0.56997945	0.63856376
0.6331004	0.31945964	0.65701069
0.63218856	0.82911682	0.63716505
0.64195418	0.06395489	0.13088434
0.63492777	0.56929655	0.13103367
0.12064559	0.32160074	0.12271227
0.12987656	0.82642477	0.12411379
0.1250169	0.06431776	0.63344229
0.12429817	0.56922359	0.64141721
0.62337044	0.32283758	0.64665566
0.63160721	0.83066018	0.63488287
0.64540134	0.0665023	0.11609947
0.6332865	0.57298582	0.12570348
0.12358935	0.32203527	0.12189901
0.14106763	0.82709182	0.12486622
0.12517542	0.07353993	0.63866464
0.12632332	0.57037065	0.63357457
0.6118617	0.32198908	0.63458676
0.63514165	0.82533833	0.63166871
0.63887814	0.0670979	0.1080403
0.62045012	0.57215814	0.11821819
0.11659653	0.32321861	0.12673017
0.14209199	0.82493665	0.12796943
0.12627352	0.07142295	0.62691959
0.12076267	0.57212094	0.62425274
0.60682639	0.31715544	0.62868845
0.64268457	0.82323564	0.6366019
0.62482513	0.06731151	0.11004722
0.60765529	0.57075202	0.11320255
0.10692748	0.32143148	0.12536612
0.12964495	0.82082518	0.12919474
0.12102649	0.06318179	0.61424621
0.11078644	0.57309531	0.62646387
0.61194843	0.31377566	0.63161846
0.6477484	0.8221521	0.64530382
0.61663886	0.0671824	0.11420885
0.60671811	0.57162843	0.11351376
0.10593035	0.31995816	0.11159254
0.11667079	0.81707842	0.12900493
0.1138901	0.06005287	0.61888685
0.10763076	0.57332136	0.63005466
0.6136253	0.31404555	0.6332386
0.64358813	0.81920114	0.64588966
0.61506223	0.06856669	0.10836936
0.61462013	0.57333622	0.11648797
0.1078223	0.31899516	0.10823752
0.11520834	0.8173159	0.12837709
0.11310967	0.06470524	0.63461379
0.10936088	0.57090505	0.62923653
0.59912664	0.31666805	0.62126219
0.635703	0.81971964	0.63473493
0.61158223	0.06984418	0.09724201
0.61362417	0.57351184	0.11878858
0.10402255	0.31757671	0.1172364
0.12415626	0.81968813	0.13117376
0.1190638	0.06986742	0.63873625
0.11166804	0.57137562	0.62292937
0.59130125	0.31626226	0.60471541
0.62994525	0.82038588	0.61842552
0.60446883	0.06916977	0.09052884
0.59909432	0.57102651	0.11409526
0.09482532	0.3188428	0.12436366
0.13557015	0.819733	0.12878795
0.12202751	0.07060884	0.62363993
0.10318902	0.57089184	0.61059659
0.60362112	0.31051747	0.59626753
0.63158662	0.82134036	0.60902717
0.59641759	0.06915411	0.08474227
0.59660864	0.56845191	0.10870853
0.08796882	0.31765919	0.12278452
0.13674693	0.81887985	0.12181653
0.11513717	0.06557622	0.61740535
0.08891373	0.56756581	0.60981827
0.61322435	0.30742573	0.59760826
0.63450942	0.82216828	0.61339973
0.59770931	0.0689763	0.08125053
0.60447609	0.5705064	0.11168568
0.08730407	0.31480988	0.11401886
0.12823296	0.81707737	0.1170471
0.10834776	0.06022215	0.63030168
0.08419514	0.56956193	0.6198494
0.60473118	0.31045468	0.59965741
0.63051726	0.81978914	0.6248926
0.6065295	0.06806832	0.08055707
0.6071334	0.57329016	0.11153168
0.09136771	0.3138836	0.11181521
0.12185453	0.81801451	0.11308806
0.10744151	0.06083067	0.63879473
0.08623429	0.57008523	0.63047862
0.58583583	0.31569363	0.59300073
0.62334037	0.81595269	0.62611708
0.6041915	0.06489834	0.07497912
0.60696931	0.57427211	0.10473946
0.09551131	0.31570176	0.11643634
0.11932816	0.82131103	0.11481319
0.11058792	0.06388984	0.62344263
0.08451505	0.56830001	0.63274053
0.58151324	0.31626736	0.58684216
0.62089212	0.81055305	0.61696694
0.59764832	0.06073897	0.06989825
0.59882805	0.57277868	0.09615157
0.0955266	0.31687142	0.11728575
0.1191333	0.82086988	0.11965811
0.10973827	0.06333797	0.60246359
0.08111089	0.56789506	0.62152696
0.602395	0.31137083	0.59124325
0.6262866	0.80728619	0.61134996
0.59943353	0.05955353	0.07000483
0.59745861	0.56880061	0.09159227
0.08954814	0.31223024	0.11124355
0.11473052	0.81817122	0.12153868
0.09538503	0.05756759	0.60009441
0.07806274	0.56689297	0.60985982
0.62785886	0.31204787	0.60073545
0.62677611	0.80991623	0.61123228
0.60948212	0.05906786	0.07589029
0.6062742	0.56431416	0.10248261
0.08282081	0.30656965	0.10891352
0.10605369	0.81819832	0.123606
0.0801937	0.05480456	0.61648322
0.08446967	0.56556633	0.61239381
0.63564807	0.31367224	0.60172109
0.61726056	0.8173994	0.61437424
0.62158479	0.05580824	0.08155398
0.60729048	0.56321011	0.10792658
0.07953012	0.30578024	0.11454072
0.10524073	0.82191318	0.12390846
0.0823438	0.05954763	0.63122589
0.09666936	0.56295235	0.62770259
0.61698077	0.31309225	0.58812977
0.61204965	0.82770976	0.6149389
0.61976242	0.0545985	0.07963034
0.59785529	0.56486967	0.09314027
0.08488276	0.30734537	0.11565616
0.10930285	0.82526226	0.12136023
0.09845094	0.06274408	0.62911395
0.09370092	0.55953154	0.63620204
0.59247705	0.31539369	0.5672999
0.61235716	0.83157243	0.60812542
0.60820268	0.05671885	0.08050192
0.58708069	0.5659878	0.07722007
0.08969172	0.30676435	0.10972634
0.11621256	0.82219139	0.1211196
0.10923351	0.06193095	0.61649531
0.08437534	0.5576673	0.62209092
0.57927647	0.3147525	0.5664892
0.61169047	0.82631404	0.60880091
0.60473904	0.05893819	0.08011254
0.58970475	0.56430323	0.07123829
0.08556721	0.30336796	0.10530258
0.1185035	0.81430285	0.1273941
0.10227384	0.05880439	0.60576954
0.08814539	0.55954631	0.6124786
0.58982643	0.31435351	0.57935323
0.61472585	0.8215986	0.62014979
0.61255989	0.05942621	0.08401459
0.60411305	0.56076513	0.07080393
0.08480009	0.30059427	0.10539802
0.11195599	0.80855203	0.13855077
0.08830086	0.05841465	0.60423917
0.10188728	0.5638506	0.6289775
0.60653738	0.31702724	0.5847829
0.62300338	0.82364438	0.62156243
0.62571151	0.05581689	0.09620195
0.61347242	0.56119124	0.07236123
0.09509124	0.30215621	0.1073627
0.11118405	0.80870411	0.14422969
0.09056029	0.06126025	0.61252586
0.11121054	0.56596977	0.64172673
0.60743096	0.32057191	0.58154759
0.62821655	0.82918962	0.61332781
0.62618548	0.05289722	0.09473397
0.60828245	0.56506133	0.07873349
0.10795564	0.30624491	0.10924595
0.11633312	0.81080744	0.13827925
0.11937054	0.05966471	0.61769457
0.11033761	0.56433896	0.631554
0.59261105	0.32334521	0.57529445
0.62179003	0.83275077	0.60547976
0.60919985	0.05261763	0.08542432
0.60020359	0.56440655	0.09017793
0.10204563	0.30546781	0.1117757
0.11925141	0.81022065	0.13115175
0.13197734	0.05568801	0.61360161
0.10797812	0.56231494	0.61967853
0.58243372	0.32514578	0.57250703
0.61409997	0.82642102	0.60124637
0.60982648	0.05454262	0.08634464
0.59952968	0.55886083	0.10197378
0.09026474	0.30031886	0.10923224
0.11944449	0.80859128	0.13013832
0.11685964	0.05257805	0.61111806
0.10552575	0.56425673	0.61816057
0.59303514	0.32441403	0.57773141
0.61743984	0.81935867	0.60501145
0.62269842	0.05958632	0.09393124
0.61029015	0.55596213	0.10669499
0.10141389	0.30051617	0.10316216
0.11959849	0.80922371	0.13921096
0.10428206	0.05288067	0.60891524
0.10359235	0.56651042	0.62497456
0.60566396	0.32205116	0.58308018
0.62969691	0.82314768	0.61647848
0.62609368	0.06208892	0.1032092
0.61597958	0.55880345	0.10217764
0.11694041	0.3068038	0.09885298
0.12419094	0.80925837	0.14446587
0.11499678	0.05790476	0.61519437
0.10447326	0.56632951	0.634487
0.6006613	0.32091216	0.5853748
0.63433762	0.82757328	0.63019666
0.6206402	0.06207373	0.10636941
0.61138329	0.5663917	0.09169015
0.1194684	0.3099984	0.09582871
0.13164634	0.81066956	0.13421788
0.12981425	0.06335929	0.62592537
0.10691318	0.56421836	0.63658897
0.59524584	0.32124364	0.58702513
0.62050683	0.82345336	0.63703235
0.61476644	0.06344119	0.09992623
0.61514649	0.56911107	0.0885794
0.11471793	0.30758259	0.09473163
0.13562662	0.81291077	0.12459425
0.13047192	0.06477823	0.62190792
0.11338783	0.5631581	0.63101807
0.60569567	0.32196549	0.59389437
0.60722538	0.8182406	0.62702282
0.62093798	0.06434044	0.09658135
0.6260521	0.56467087	0.09778765
0.11055841	0.30561039	0.09765418
0.13291876	0.8133755	0.12903045
0.12230659	0.06146626	0.62093609
0.11936854	0.56623387	0.62834559
0.62147213	0.32044424	0.60777653
0.61583519	0.81864874	0.61162449
0.63081304	0.06686375	0.10379904
0.63501095	0.56247132	0.1125499
0.11410829	0.30670844	0.10249368
0.12754403	0.81390123	0.13708179
0.11899606	0.0563434	0.62608627
0.1192611	0.56798775	0.63475793
0.62421689	0.31558897	0.6161649
0.63359524	0.8236943	0.61053231
0.63287178	0.0679889	0.11444938
0.6393764	0.56825843	0.12534399
0.12216195	0.31350812	0.10917844
0.13523458	0.81513215	0.13708064
0.12555297	0.05593604	0.62709137
0.11970104	0.56495689	0.63669118
0.61975561	0.31163424	0.61762485
0.63634951	0.82557608	0.62121574
0.62855526	0.06418695	0.11794353
0.63621931	0.57539626	0.12898331
0.12519048	0.31887678	0.1139689
0.14731781	0.81796581	0.12914124
0.13248722	0.0620112	0.6271317
0.11891718	0.56096827	0.63106076
0.62013257	0.31151189	0.61996834
0.62713044	0.82192141	0.63148161
0.62712865	0.05986624	0.11542907
0.63375433	0.57615145	0.12734172
0.11992242	0.31515231	0.11316103
0.15088998	0.82289614	0.12403673
0.1272184	0.06623629	0.624755
0.11758333	0.55972374	0.619975
0.63146767	0.31417947	0.62486339
0.62816267	0.81711801	0.6281714
0.63920396	0.05837302	0.12248914
0.64105709	0.56979516	0.1295161
0.11575313	0.31422117	0.10914052
0.14402381	0.82644439	0.12727705
0.11691624	0.06268595	0.62713837
0.12089964	0.56334127	0.61311744
0.64523844	0.31517493	0.6343205
0.63746191	0.8168559	0.62272685
0.65020874	0.06174973	0.13250983
0.65164107	0.56508131	0.13010843
0.12155805	0.32071159	0.10864082
0.13237891	0.82748025	0.13099714
0.11160813	0.05643983	0.63312668
0.12525174	0.56763848	0.62170292
0.65443899	0.31205799	0.64705701
0.64136759	0.82150813	0.63229448
0.64532868	0.06728879	0.13706694
0.65220414	0.56754365	0.13128529
0.13660601	0.32666706	0.11579157
0.13073119	0.82822775	0.13042663
0.11777168	0.05586707	0.63458458
0.1325485	0.5681896	0.64056745
0.65508165	0.31005703	0.65070495
0.63735677	0.82482482	0.64569162
0.63511776	0.06682837	0.13771292
0.64857452	0.57596582	0.1363597
0.14803897	0.32540024	0.12132406
0.13824707	0.82905341	0.12659439
0.12005489	0.06208652	0.63664792
0.14029049	0.56739967	0.64477831
0.64691847	0.31167228	0.64564545
0.63173169	0.82261901	0.64665564
0.63516808	0.06156625	0.13552605
0.65067241	0.58233201	0.1436535
0.14580098	0.31785178	0.123492
0.1390091	0.83026871	0.12133261
0.11897827	0.0628704	0.63679306
0.14213235	0.56796971	0.63124946
0.64132054	0.31299732	0.64520393
0.63636981	0.81714131	0.6396128
0.64555959	0.05956397	0.14075958
0.65584092	0.57785386	0.14984994
0.13616036	0.31363819	0.12819289
0.13305676	0.83154331	0.1208917
0.12451263	0.05628765	0.63434323
0.14188071	0.57177589	0.62243518
0.64204453	0.31147979	0.64826424
0.64648525	0.81528951	0.63500242
0.6553062	0.06248802	0.15495758
0.65804678	0.56742433	0.15093809
0.13930391	0.31833932	0.13509213
0.12846381	0.83180893	0.12336671
0.13610639	0.05541747	0.63004997
0.14154696	0.5753124	0.63127979
0.64744863	0.30870464	0.65351373
0.6531392	0.81977929	0.6486931
0.65502427	0.06584803	0.16426161
0.65426639	0.56563673	0.14908943
0.15423517	0.32785601	0.14136721
0.13461677	0.83018529	0.12217594
0.14939061	0.06365957	0.62283532
0.14335874	0.57409783	0.64188033
0.65444078	0.30776235	0.66127436
0.6492982	0.82610692	0.66234862
0.64945012	0.06433803	0.1600387
0.64936662	0.57294616	0.15178351
0.16053268	0.33251538	0.14339194
0.14004505	0.82939618	0.12144337
0.1532431	0.07076615	0.61951019
0.14797936	0.56915447	0.63840144
0.65692577	0.30999933	0.66496367
0.64350583	0.8266063	0.65691653
0.64939588	0.05865644	0.15045179
0.65128479	0.57610023	0.15584605
0.15340707	0.32811579	0.14082928
0.13368156	0.83276431	0.11672767
0.14343791	0.06904689	0.62601165
0.14902141	0.56504252	0.62767113
0.65612164	0.31459996	0.6667063
0.64316978	0.81845771	0.64536693
0.65648911	0.05770058	0.15115295
0.65629954	0.56960891	0.1539419
0.15312869	0.32227393	0.14080028
0.12379522	0.83706378	0.11431227
0.13773607	0.0645	0.63899049
0.15004862	0.56491409	0.62884736
0.65440609	0.31706237	0.66999433
0.64647184	0.81383904	0.64197616
0.66150719	0.06313867	0.1574962
0.65718581	0.56283802	0.15139759
0.16215157	0.32302772	0.15123148
0.12003256	0.83672521	0.12093316
0.14994315	0.06414366	0.64702238
0.15692613	0.57221436	0.64126193
0.65471179	0.31607622	0.67166656
0.64679091	0.8185738	0.6479408
0.65584259	0.06920302	0.16388098
0.65162525	0.56637523	0.15835577
0.16918734	0.32740445	0.16454947
0.12566759	0.82997233	0.12936175
0.16321709	0.06821007	0.6421285
0.1622493	0.57693302	0.65373434
0.66042042	0.31294594	0.6743984
0.64366555	0.82161591	0.65376721
0.6453073	0.06808177	0.16436268
0.64926464	0.57282605	0.1715036
0.17042119	0.32662038	0.16720434
0.13232872	0.82300841	0.13075221
0.15816072	0.07340518	0.63682948
0.16520898	0.576505	0.65206575
0.65873821	0.31028928	0.67777563
0.63897734	0.81704748	0.64541994
0.64194088	0.06083446	0.15962954
0.65433193	0.57232907	0.17286574
0.16570841	0.31948701	0.16094964
0.12752746	0.82218621	0.12551734
0.15463991	0.07435096	0.64384822
0.16661723	0.57249527	0.64098119
0.65659827	0.31307488	0.67953369
0.64251339	0.81310279	0.63738992
0.64510358	0.05649522	0.16421615
0.65709361	0.56409549	0.15569778
0.1639432	0.31524521	0.15976175
0.11922036	0.82513371	0.12036922
0.16172089	0.07127346	0.65184795
0.16021577	0.56970328	0.6322996
0.66496581	0.31728888	0.68215549
0.65152107	0.81475576	0.64134339
0.64829364	0.06032256	0.17326966
0.65153552	0.55918931	0.13914218
0.17269142	0.32178721	0.16109894
0.11872181	0.82727511	0.11832183
0.16500941	0.06859929	0.6569092
0.15478545	0.57300592	0.63413324
0.67880073	0.31707285	0.68584349
0.64963806	0.82153034	0.65292999
0.64060043	0.06700363	0.17527812
0.6490075	0.5640834	0.14746793
0.17597172	0.32905851	0.16474605
0.12224975	0.82585336	0.11721163
0.15356049	0.07060923	0.65568523
0.15862187	0.57556752	0.64725137
0.68950445	0.31541318	0.69123317
0.64207402	0.8232215	0.66092959
0.63134578	0.06791592	0.16873548
0.65141959	0.5707335	0.16913096
0.16380982	0.32675867	0.17003635
0.12365147	0.822817	0.11486951
0.13455747	0.07361435	0.65973343
0.16017203	0.57200545	0.65384577
0.69085054	0.31422091	0.6904428
0.6390072	0.81797551	0.64713414
0.63380993	0.06103337	0.16109747
0.66272662	0.57141075	0.1698828
0.15003556	0.31738463	0.16346533
0.12279696	0.82357133	0.11212833
0.13004828	0.07108843	0.67888477
0.15191803	0.56997181	0.65213288
0.68178008	0.31355161	0.67778151
0.63671265	0.81498854	0.62609582
0.63828529	0.05587749	0.16651282
0.67082944	0.568147	0.15456664
0.14750458	0.31050479	0.15968877
0.12566961	0.82503899	0.11262044
0.14579083	0.06451699	0.69047198
0.14379855	0.57244217	0.64560285
0.66909533	0.3128306	0.66786914
0.63341671	0.81824387	0.62866699
0.63701244	0.0592778	0.17896764
0.65815559	0.56677556	0.13580791
0.15192181	0.31096307	0.16434453
0.13448506	0.82675751	0.1152372
0.15827695	0.06023697	0.67800011
0.1433147	0.5777472	0.64220692
0.66127349	0.30994665	0.66927519
0.62706859	0.82316893	0.64419532
0.62956581	0.06599749	0.17938057
0.64820002	0.57020142	0.1319977
0.14814664	0.31622174	0.16277746
0.13359255	0.82624525	0.11808581
0.14563838	0.06217734	0.66094076
0.14964737	0.57795261	0.64331498
0.6630406	0.31248122	0.67399308
0.62536309	0.82294217	0.6536281
0.62362948	0.06724053	0.16861908
0.65316756	0.5760616	0.13962799
0.1345912	0.3196324	0.15443612
0.12432163	0.82235772	0.11874989
0.12028554	0.06622877	0.65348993
0.15065649	0.57330082	0.64736752
0.66996299	0.31725933	0.67176467
0.62918395	0.8186361	0.64969522
0.63049815	0.06461627	0.15413263
0.65608825	0.57924024	0.14400507
0.125156	0.3181039	0.14395102
0.11700302	0.82158321	0.1167554
0.12192532	0.06728805	0.65959229
0.14366584	0.56924851	0.64843214
0.67321725	0.31822527	0.65887739
0.62947531	0.8177743	0.63987757
0.64350478	0.06241963	0.14255137
0.64868126	0.57391796	0.14297343
0.12679761	0.31297988	0.13859498
0.11535576	0.8255215	0.1156384
0.13469381	0.06304802	0.6670254
0.13475093	0.56683054	0.65028195
0.67029381	0.3193537	0.64747558
0.62574545	0.82144002	0.63875878
0.64921083	0.06333831	0.14589677
0.63580443	0.56692955	0.14113826
0.13459667	0.31021374	0.1392043
0.12069258	0.82962844	0.11916284
0.13249712	0.05546944	0.66335802
0.12924524	0.56781626	0.65101359
0.66405369	0.3168998	0.64693087
0.62290176	0.82788137	0.64368294
0.63620734	0.06512319	0.14526829
0.63274346	0.56638529	0.14168583
0.13686682	0.31449191	0.13749064
0.12081778	0.83032224	0.12954281
0.12638114	0.05535429	0.65640378
0.13684464	0.56988826	0.64988297
0.65706494	0.31199985	0.65101702
0.62795583	0.83048472	0.6452869
0.6201769	0.06687807	0.13398267
0.63905437	0.57113397	0.14116988
0.12701482	0.32020126	0.13304153
0.11409135	0.82662805	0.13737075
0.12865653	0.06452481	0.6542576
0.13680771	0.56855678	0.64412861
0.65429119	0.31057729	0.65016166
0.63635298	0.82684127	0.64082543
0.619538	0.06565081	0.13385178
0.63958835	0.57431257	0.13525831
0.12183231	0.31902615	0.1294138
0.11050955	0.81952374	0.13281192
0.13659822	0.06739206	0.6527869
0.12712312	0.5665963	0.64076105
0.65141779	0.31204831	0.63984134
0.63049046	0.82347861	0.63907426
0.63134276	0.06384886	0.13465589
0.63246928	0.57038521	0.12715043
0.1315971	0.31488476	0.13326147
0.11345189	0.81564493	0.12569254
0.14291064	0.06224888	0.64690047
0.12854237	0.56618847	0.63988847
0.63993682	0.31940288	0.63379371
0.62213015	0.82553791	0.6486875
0.63956266	0.06664412	0.13323466
0.61937594	0.56632858	0.12492651
0.14034511	0.31514678	0.13941852
0.12389311	0.81793256	0.12567832
0.14086921	0.05637453	0.63741633
0.13473842	0.56714093	0.63254845
0.62573256	0.32696479	0.63606759
0.62565053	0.82903458	0.64921238
0.63452713	0.07000315	0.13208886
0.61190579	0.56890657	0.1305912
0.1353006	0.31902506	0.13638681
0.1291651	0.82273281	0.13384577
0.12926044	0.05975372	0.62782195
0.13666974	0.56971176	0.62943189
0.62181979	0.32765254	0.63710445
0.63422981	0.82850216	0.63665687
0.62879287	0.06961125	0.12688527
0.61437927	0.57584684	0.13719519
0.12131683	0.32167067	0.12930336
0.12583165	0.82482859	0.14007576
0.12094269	0.06684941	0.62608502
0.13228409	0.57082375	0.63403424
0.6307367	0.32149425	0.63286861
0.64133719	0.82557995	0.62683615
0.63248894	0.0667402	0.1224998
0.61945595	0.57777852	0.13620986
0.11440719	0.31848332	0.12462975
0.12248329	0.82257558	0.13650117
0.12675174	0.06820513	0.62748259
0.12194412	0.56992119	0.63508619
0.63523739	0.31532772	0.62509314
0.63901793	0.82554676	0.62614102
0.63477877	0.06322114	0.11850638
0.62009611	0.5729934	0.12628286
0.11925872	0.3140907	0.1214665
0.1253998	0.82019389	0.13207884
0.13504255	0.06303817	0.62574677
0.11891303	0.57084754	0.63164369
0.62274079	0.31442837	0.61875912
0.62979497	0.827563	0.63382999
0.62787275	0.06231392	0.11529835
0.61900756	0.56836174	0.12108545
0.12490503	0.31656111	0.11952466
0.13442911	0.82141668	0.13253402
0.13358131	0.06117964	0.62632745
0.12322714	0.57319671	0.62698047
0.60646266	0.31873897	0.6188632
0.6353042	0.82799114	0.63867123
0.61744626	0.06478673	0.11691702
0.61975727	0.57065776	0.11987012
0.11634937	0.32169607	0.11599739
0.13988675	0.82480026	0.1357893
0.12104365	0.06551947	0.62576289
0.12334771	0.57378437	0.62599465
0.60733478	0.32053386	0.62046449
0.64299216	0.82508191	0.63200422
0.61783329	0.06638233	0.11833747
0.62554076	0.57568596	0.11504827
0.09587861	0.32372487	0.11319283
0.13571441	0.8263082	0.13289467
0.10919405	0.07049437	0.62116328
0.11268206	0.57081451	0.62821752
0.61627745	0.31808923	0.6195931
0.63810825	0.82193467	0.62074163
0.62733925	0.06510173	0.11469254
0.63169565	0.57549496	0.1128383
0.09037791	0.32298494	0.11540688
0.13221443	0.82244852	0.12424895
0.10896783	0.06767701	0.62160199
0.10297809	0.56730085	0.63051304
0.61263817	0.31689198	0.61446736
0.62910926	0.82148041	0.61433993
0.63026131	0.06169754	0.10565374
0.62724492	0.56957974	0.11680348
0.10273148	0.31992794	0.11697197
0.13467711	0.82100521	0.12110475
0.11748331	0.0605224	0.62661616
0.10613202	0.56878802	0.63258906
0.60052067	0.31939726	0.6098377
0.62678918	0.82314069	0.61383633
0.62479911	0.06227521	0.10004879
0.61600384	0.56507001	0.12484572
0.10598168	0.31726989	0.11348334
0.13733209	0.82648402	0.12488668
0.12019491	0.06019271	0.62681506
0.11003762	0.57271357	0.63182592
0.59553609	0.32161981	0.61138774
0.63584406	0.82289523	0.61271408
0.6232105	0.06428806	0.10660337
0.61573361	0.56561594	0.12688802
0.09729164	0.31652047	0.10870421
0.1350682	0.8286524	0.13218031
0.10852843	0.06676028	0.62248533
0.10400842	0.57540865	0.62938968
0.59926243	0.31541844	0.61160797
0.64468305	0.82077147	0.61005035
0.62268619	0.06214282	0.11211644
0.62212216	0.56902761	0.1146453
0.08732105	0.31489446	0.10817965
0.12789887	0.8236315	0.13625216
0.09759674	0.07117446	0.61430604
0.09369504	0.57419203	0.6276473
0.60606877	0.30763774	0.61002386
0.64057245	0.82025163	0.61294207
0.62202194	0.06178701	0.10723516
0.62115574	0.56944445	0.09535142
0.09342808	0.31356658	0.11089481
0.12196825	0.81934196	0.13007825
0.09897806	0.0685447	0.60969324
0.09000954	0.56880217	0.62536824
0.60755597	0.31255133	0.60751389
0.63076069	0.82206963	0.61822637
0.62144033	0.06308237	0.09599602
0.61865461	0.56679201	0.07753022
0.1116587	0.31257364	0.10706201
0.120751	0.82086265	0.12103173
0.10653123	0.05850646	0.61167019
0.09876041	0.56811993	0.62512688
0.60108241	0.32007332	0.61016977
0.6256217	0.8225265	0.62113178
0.61782111	0.06279003	0.09127599
0.62027146	0.56587353	0.07525836
0.11121655	0.31097892	0.10316621
0.12339236	0.82650293	0.11728234
0.10889565	0.05127236	0.61295995
0.11042679	0.57011935	0.62687556
0.59409807	0.32118417	0.62363876
0.62772894	0.82091271	0.61874821
0.61960259	0.06283222	0.10144539
0.62082676	0.56908499	0.09130838
0.09534829	0.31188544	0.10635314
0.12656267	0.82686897	0.12158492
0.10250479	0.05214841	0.61329225
0.11167505	0.56870063	0.62523974
0.59687469	0.31725518	0.62885248
0.62956221	0.8202108	0.61015508
0.62606361	0.06180809	0.108854
0.61967484	0.57184395	0.10279104
0.08939507	0.31256867	0.10953478
0.12882951	0.81781079	0.12757995
0.0952651	0.05930309	0.61166562
0.09712047	0.56732891	0.62435126
0.60932252	0.31559594	0.61999839
0.62317017	0.82376729	0.60717887
0.62583138	0.06074478	0.09765115
0.61972005	0.56762341	0.09928983
0.10095007	0.31215331	0.11122376
0.13137694	0.80989262	0.12494436
0.10268745	0.06525221	0.61001758
0.0900127	0.56618311	0.62465335
0.6211185	0.31970651	0.60853167
0.61317186	0.82698528	0.61520017
0.62072291	0.06164969	0.08513404
0.62296721	0.56163963	0.09115894
0.12229651	0.31233116	0.11097907
0.13173774	0.80866069	0.11975432
0.11557428	0.0661034	0.61298614
0.10523618	0.56586878	0.62271769
0.61194756	0.31989168	0.59565076
0.61570138	0.82417067	0.61921622
0.61811014	0.06031678	0.0887977
0.62547112	0.56472721	0.09225745
0.1353074	0.31021346	0.1106097
0.12572178	0.8131948	0.12014683
0.11698776	0.06337807	0.61475959
0.11502961	0.56411377	0.61574686
0.59050276	0.31309052	0.58726794
0.62454585	0.81811423	0.61608396
0.62420516	0.05748242	0.10811067
0.62120184	0.56947233	0.10504413
0.12813574	0.31108576	0.11285478
0.12088752	0.81405049	0.12615324
0.10932125	0.06056009	0.61106476
0.10935164	0.56430616	0.60879973
0.58443203	0.30882158	0.58667799
0.62811464	0.81708621	0.61869172
0.63275908	0.0550221	0.1171623
0.61461743	0.56868254	0.11352083
0.11483916	0.31526674	0.11687197
0.12406948	0.80974653	0.12967683
0.1086083	0.05973716	0.60581272
0.1018521	0.56415557	0.61630075
0.6018357	0.31220188	0.58578519
0.62522767	0.82161411	0.62874325
0.63187835	0.05520904	0.10460342
0.61188911	0.56583129	0.11270995
0.11060043	0.31543468	0.11494589
0.12984848	0.80845689	0.11788386
0.1204735	0.05964319	0.60622101
0.10826907	0.56078836	0.62865666
0.61933505	0.32044089	0.58589956
0.61657499	0.82540736	0.62702242
0.62567009	0.05963489	0.0916865
0.61781381	0.56547345	0.11457951
0.12381097	0.31014244	0.10674053
0.13200364	0.81282367	0.11153981
0.13306007	0.05597793	0.60879831
0.12431609	0.56048747	0.62876815
0.6152859	0.32259834	0.58880429
0.6225596	0.82407612	0.61307865
0.62426033	0.06411354	0.09464106
0.62976215	0.56640181	0.12318486
0.13966863	0.30524251	0.10358109
0.12771863	0.81782204	0.12059195
0.14097462	0.05445468	0.61611191
0.12611989	0.56172391	0.62242176
0.60980677	0.31273305	0.59498091
0.64215649	0.81985543	0.60444657
0.62985689	0.06325061	0.10495701
0.63069446	0.56651478	0.12879657
0.1350547	0.30514783	0.11214734
0.12144892	0.81817772	0.12897015
0.14090963	0.05985791	0.62268224
0.11220966	0.56583963	0.62250092
0.62551668	0.30629692	0.60390935
0.6450571	0.81678035	0.6087387
0.63977981	0.06108456	0.10798182
0.61978995	0.56358833	0.12428626
0.12378111	0.30971655	0.12035853
0.12088514	0.81009932	0.12854529
0.13443566	0.06362807	0.6226374
0.10960588	0.56990089	0.62708339
0.64918077	0.31267719	0.60287839
0.63795354	0.81797034	0.62226227
0.64247388	0.06130349	0.10083509
0.61512239	0.56065637	0.11522891
0.12732635	0.31197718	0.12374547
0.12410234	0.80648188	0.12540669
0.12987201	0.06215215	0.62377648
0.12594537	0.56904815	0.62932498
0.65213749	0.32066199	0.60338676
0.63561631	0.82131913	0.63458234
0.64020898	0.062489	0.09441703
0.61813433	0.561754	0.11436939
0.13644123	0.30860312	0.11589432
0.12279831	0.81376393	0.126453
0.12810886	0.05935482	0.62544546
0.14064139	0.56541838	0.62535901
0.63839224	0.3223545	0.61026963
0.63712531	0.82192044	0.63654288
0.64344874	0.05979416	0.1004373
0.62588471	0.56637049	0.12238531
0.13978826	0.30498681	0.10592141
0.11717093	0.82021424	0.12484459
0.12827511	0.0604261	0.6277871
0.13940983	0.56192119	0.61572371
0.63368736	0.31536231	0.61969008
0.64082064	0.82093428	0.63362455
0.64618842	0.05342421	0.10603515
0.63052437	0.57025835	0.12890036
0.13372937	0.3067519	0.11045533
0.11795157	0.81981335	0.11817627
0.12731375	0.06247346	0.62930708
0.12532646	0.56263132	0.61210085
0.64758649	0.31016627	0.63254003
0.64179742	0.82032505	0.6340357
0.64599885	0.05334705	0.10376676
0.63178669	0.56991932	0.12861066
0.13277053	0.31366338	0.11714905
0.1264459	0.81724804	0.11571629
0.11939884	0.06020825	0.62930492
0.12015397	0.56594054	0.62166082
0.66125812	0.31434703	0.63855276
0.63746568	0.82140093	0.63900558
0.6470287	0.05893672	0.10184246
0.63791	0.56710644	0.12087297
0.14118178	0.31736939	0.11623669
0.13180115	0.81543785	0.11826996
0.11815835	0.05813141	0.63258947
0.13041744	0.56609747	0.63080989
0.65931959	0.31928305	0.63386558
0.63474286	0.82308388	0.64150608
0.64603684	0.0627776	0.10860418
0.64734571	0.56619999	0.11770473
0.14838588	0.31290208	0.11101089
0.12999463	0.81713982	0.12284641
0.12618822	0.05883682	0.63444849
0.13928483	0.56803689	0.63134207
0.65144961	0.31792899	0.62945935
0.63420534	0.82192297	0.63948757
0.64464649	0.06370231	0.12481244
0.65134177	0.56755616	0.1218397
0.14796138	0.30680716	0.10718836
0.12687003	0.81973789	0.12613475
0.13045894	0.06158978	0.63627879
0.13775498	0.57149887	0.62601987
0.64731383	0.31333625	0.62728141
0.63402715	0.81910384	0.63806192
0.64605003	0.06135224	0.1340641
0.64704287	0.56995345	0.12727388
0.13969815	0.30784759	0.11466922
0.12421019	0.81832757	0.12385749
0.13094486	0.06379106	0.6396293
0.12617193	0.57041255	0.62447385
0.64797251	0.3142861	0.63006695
0.63202274	0.819793	0.63687786
0.64963628	0.06020958	0.13395531
0.64210796	0.56991053	0.13031909
0.13295773	0.3142811	0.12683072
0.1254355	0.81657099	0.12266169
0.12956945	0.06246176	0.63651513
0.12415405	0.56923352	0.63142723
0.6488356	0.3208003	0.63434119
0.62787808	0.82118197	0.63898919
0.64741619	0.06307738	0.13219484
0.64462597	0.56725797	0.13069874
0.1350607	0.31921531	0.12659218
0.12920079	0.81845937	0.1250265
0.13152458	0.05898281	0.6299811
0.1360582	0.56719064	0.6385114
0.64450973	0.32153093	0.63410429
0.62722955	0.81855738	0.64333088
0.63785393	0.06483945	0.13376005
0.65298839	0.56777974	0.13091294
0.13790364	0.31740916	0.12198951
0.12699778	0.82245485	0.12601263
0.13798024	0.05659887	0.62726763
0.14260372	0.56489296	0.63718736
0.63873586	0.31426346	0.63232006
0.62951547	0.81786455	0.64169384
0.63096008	0.06381202	0.14164817
0.65663895	0.57024559	0.1320139
0.14168519	0.3130372	0.12608418
0.12166099	0.8252361	0.12621312
0.1382779	0.05567919	0.62897145
0.13671354	0.56754699	0.63320483
0.63897762	0.30899023	0.6316501
0.6281205	0.82240548	0.63898597
0.62887925	0.06171697	0.14269714
0.64941194	0.56986393	0.13064205
0.1445727	0.31337941	0.13699135
0.1229177	0.82436292	0.12787819
0.1371886	0.05740732	0.63249912
0.12532658	0.56814495	0.6298118
0.64048558	0.31211137	0.63557941
0.62435118	0.82572081	0.63921517
0.63046012	0.06294091	0.13827277
0.63947476	0.56729806	0.129703
0.14256597	0.31704844	0.14146605
0.12556094	0.82216669	0.13118106
0.14212685	0.06153681	0.63518139
0.13062693	0.56488334	0.63167589
0.64341637	0.31668569	0.63943402
0.61946946	0.8227273	0.63616799
0.63484242	0.06831791	0.14420024
0.6398291	0.56533424	0.12947688
0.13813717	0.31945524	0.13529948
0.12605126	0.82240365	0.13196749
0.14853677	0.06246761	0.63367869
0.14710529	0.56202398	0.63769166
0.64426271	0.3151862	0.63727168
0.61995025	0.81568661	0.63069215
0.63353494	0.07003724	0.15373648
0.64616938	0.56819504	0.13116411
0.13026241	0.31812604	0.13419611
0.12798403	0.82359066	0.12659482
0.15343815	0.06094338	0.62995385
0.15109043	0.56271478	0.63481172
0.63941821	0.30938939	0.63569658
0.6278921	0.812076	0.62760781
0.62905726	0.06499916	0.153435
0.64799635	0.57227579	0.13667913
0.12619332	0.31533521	0.14146743
0.13088858	0.82408285	0.12041843
0.15285003	0.05941562	0.62910057
0.14384581	0.56664196	0.63287964
0.64004401	0.30958348	0.63984015
0.62877935	0.81608364	0.63010453
0.62933009	0.06143542	0.14371126
0.63637846	0.57271949	0.14286099
0.1318784	0.31757859	0.14887039
0.13268381	0.82239613	0.1226829
0.14933424	0.06320373	0.63402466
0.13645424	0.56880749	0.63962591
0.64177398	0.31738923	0.64963865
0.62049182	0.82181468	0.63358769
0.63381168	0.06370756	0.13813488
0.62199318	0.57047781	0.14668422
0.13530945	0.32127443	0.14471754
0.13754807	0.81954673	0.13012233
0.1465491	0.06715783	0.64242984
0.13637077	0.56807357	0.63943388
0.64289345	0.3210331	0.65926956
0.6231559	0.82190847	0.63440118
0.63804024	0.06798599	0.14466621
0.62237792	0.56859349	0.14496597
0.13446256	0.31941365	0.13166737
0.13566762	0.82102666	0.13251201
0.14263416	0.06458038	0.64550511
0.14069292	0.56736802	0.63631609
0.64588337	0.3147394	0.65746034
0.63448564	0.81561854	0.63376177
0.63564412	0.06628312	0.15163534
0.62789446	0.57008844	0.13651958
0.13006731	0.31720725	0.12641788
0.12698746	0.82518473	0.12570149
0.13707607	0.06551588	0.64223268
0.13748028	0.56788855	0.6338837
0.64780111	0.30606587	0.65548382
0.64181889	0.81448627	0.63661374
0.63195366	0.0588951	0.15250185
0.62661538	0.57301339	0.13037498
0.12768771	0.31933066	0.12984043
0.1297211	0.82700954	0.12470829
0.13211968	0.06788384	0.6384447
0.12729473	0.57171825	0.62910013
0.64877286	0.30778428	0.66197743
0.63976372	0.82274722	0.65046374
0.63595312	0.05770815	0.15123495
0.62789654	0.57256799	0.13238488
0.13406683	0.32535338	0.13540261
0.13560994	0.82797197	0.13153735
0.1293091	0.06855649	0.64637844
0.1231594	0.57679866	0.62686977
0.64683865	0.31809024	0.66746133
0.63518485	0.82712629	0.6642145
0.64247517	0.06585529	0.15041796
0.63455025	0.56948902	0.14095813
0.12807904	0.32785348	0.13949625
0.12869123	0.83113871	0.13401
0.12857191	0.06910697	0.65988133
0.12533798	0.57615266	0.62871946
0.64274334	0.3249894	0.66706583
0.63989104	0.82379833	0.65782412
0.64751623	0.07315997	0.15207569
0.64416748	0.56739813	0.14784491
0.11345995	0.32384948	0.13442481
0.11637543	0.83572285	0.12995055
0.12357259	0.07015797	0.66695243
0.12795557	0.57862065	0.64388484
0.63754905	0.32266569	0.66333528
0.6505944	0.8213685	0.64016094
0.64222914	0.06794923	0.15082282
0.64977627	0.56878883	0.1449669
0.10490436	0.31829771	0.13028316
0.11480191	0.83766284	0.12543716
0.11536374	0.07375543	0.66048979
0.12849578	0.58116382	0.65631141
0.63001808	0.31674775	0.66632714
0.65386667	0.82341883	0.63168313
0.63477221	0.06191487	0.14533455
0.64200132	0.5727916	0.14350683
0.10591958	0.31975953	0.13404993
0.12199412	0.83347033	0.12981735
0.11446323	0.07780198	0.64864191
0.12631999	0.58230966	0.65464658
0.62623179	0.31680802	0.67245704
0.64513377	0.82942429	0.63620417
0.63924184	0.06697713	0.14392116
0.63084176	0.57573391	0.14854291
0.11915288	0.32525573	0.13869105
0.12113536	0.83204521	0.1430405
0.11770619	0.07900956	0.64790984
0.12898514	0.5881996	0.64759211
0.62722459	0.32315791	0.66853171
0.63747511	0.83062104	0.64100416
0.64613102	0.07281881	0.14627823
0.62138027	0.57398253	0.15198756
0.12786456	0.33003465	0.1398565
0.10490431	0.83742841	0.14674987
0.10981534	0.078775	0.65458148
0.13215652	0.58454134	0.64047818
0.62942429	0.32686892	0.65888811
0.64424099	0.8250167	0.63428147
0.64321629	0.07068142	0.14956748
0.6146838	0.57306625	0.15027989
0.11766289	0.32942762	0.13738391
0.0899212	0.84140573	0.14162305
0.09695445	0.07718453	0.65332405
0.12993785	0.57593928	0.64275682
0.63095345	0.32182274	0.65233318
0.66060221	0.82372922	0.62223425
0.62976343	0.06188032	0.15036677
0.61446604	0.5761093	0.14449873
0.10381464	0.32624625	0.13519844
0.08961873	0.83694812	0.13386649
0.09504315	0.07452298	0.6497489
0.12811326	0.57458049	0.65250925
0.62707608	0.31684175	0.65789224
0.66482092	0.83011939	0.61710836
0.61331916	0.05614186	0.1425105
0.61298342	0.57584769	0.14385436
0.10691201	0.32630766	0.14043984
0.10538468	0.83143286	0.13072892
0.11087018	0.07263842	0.64976507
0.12711154	0.57931794	0.65037351
0.62519292	0.32403865	0.67251587
0.64538923	0.83486573	0.62373219
0.61022103	0.0613331	0.13570374
0.61255493	0.57152958	0.15155042
0.11629385	0.33131378	0.14405832
0.12254682	0.83417146	0.13952237
0.12428294	0.07141838	0.6539319
0.12751003	0.58666202	0.63986803
0.62597153	0.33350829	0.674657
0.62755913	0.83092176	0.63130241
0.62235615	0.07241364	0.13543556
0.61344869	0.57009277	0.15216354
0.12036513	0.3368994	0.13989754
0.11615607	0.83541836	0.14383323
0.12164015	0.07443437	0.6568342
0.12656597	0.58479637	0.63935117
0.62460781	0.33465687	0.66043303
0.63446335	0.8242788	0.62704735
0.63009726	0.07496027	0.13978235
0.60845525	0.57210704	0.14432694
0.1173589	0.33470578	0.13919124
0.10601393	0.82882571	0.13485892
0.1081583	0.07858314	0.64975516
0.1268128	0.57939262	0.65330527
0.6300853	0.32673409	0.6430644
0.65239679	0.826334	0.61837338
0.62676148	0.06780583	0.14483837
0.60645091	0.57460188	0.13690593
0.11996318	0.32707178	0.14747978
0.11052104	0.82297889	0.12012814
0.10594185	0.07628139	0.63865237
0.13034997	0.5780915	0.6626616
0.6275345	0.3179367	0.63539381
0.66237497	0.83204183	0.62412446
0.61894631	0.06188252	0.14155433
0.6093804	0.576146	0.13644184
0.13042098	0.32286402	0.15676662
0.12685717	0.82324625	0.10832059
0.11676684	0.07259046	0.63464802
0.12941238	0.57942159	0.6542114
0.61729881	0.31678832	0.6404989
0.64900922	0.83160571	0.64023729
0.61682985	0.06579357	0.13827952
0.61370864	0.57582585	0.14482445
0.13044029	0.32252457	0.15951765
0.13648002	0.82919363	0.11505505
0.13130622	0.07021384	0.6364453
0.12044384	0.57934028	0.638469
0.61236401	0.32288609	0.64752348
0.62883878	0.82719782	0.652719
0.61666663	0.07301366	0.14050439
0.61888535	0.57528703	0.14278866
0.12160804	0.3249023	0.15530732
0.13357932	0.83414684	0.12177882
0.13488989	0.06866978	0.63776087
0.1102222	0.57447908	0.63376816
0.61590948	0.32587122	0.64836474
0.63808735	0.82502757	0.65029624
0.60821964	0.07489953	0.13475931
0.61886269	0.57573468	0.12664596
0.11449875	0.32081045	0.14625143
0.13056887	0.8338732	0.11472099
0.1229825	0.07028177	0.63447878
0.10507974	0.56864495	0.6471879
0.62715355	0.32075611	0.64388229
0.65330526	0.82824877	0.63855224
0.60260547	0.06830479	0.12812549
0.61579513	0.57475171	0.12173367
0.1158922	0.31457317	0.14291691
0.1350368	0.82863945	0.11703231
0.11170237	0.06914481	0.63296384
0.11118749	0.56845917	0.657682
0.63643944	0.31449413	0.63418597
0.64420383	0.83112556	0.63033865
0.60543421	0.06085064	0.12612109
0.62313298	0.57273162	0.12779298
0.12454622	0.31444141	0.14811458
0.14455656	0.8236612	0.12684253
0.11648316	0.06489181	0.63666834
0.11714861	0.57152113	0.6453421
0.63518637	0.31545725	0.63098014
0.62708859	0.82811917	0.63828222
0.61100446	0.06167042	0.1239419
0.63280201	0.57122134	0.13178177
0.12618054	0.31575889	0.15082467
0.14543922	0.82152126	0.13538717
0.1283912	0.06234954	0.64223992
0.11235127	0.57381713	0.62727806
0.62673397	0.31984732	0.63079542
0.61934284	0.82113588	0.64518015
0.61931173	0.06751511	0.12316199
0.63658934	0.57170627	0.12468641
0.11914446	0.31335373	0.14652066
0.13093779	0.82065467	0.13432269
0.12938984	0.06314096	0.64411949
0.10738355	0.57113969	0.63268278
0.61987636	0.31886572	0.62679237
0.6277896	0.81753341	0.63454608
0.62157342	0.06677322	0.1206864
0.63342378	0.57364819	0.10860975
0.10867724	0.30793274	0.13896567
0.12499067	0.82122202	0.124877
0.11188161	0.06569518	0.63989989
0.10818127	0.5677544	0.64275049
0.62313795	0.31451294	0.62211533
0.63397691	0.82103086	0.62152544
0.61866811	0.06080795	0.11623986
0.63000065	0.57270313	0.10503194
0.10487557	0.30604385	0.13304998
0.12852629	0.82006553	0.12458276
0.10156539	0.06723662	0.63457778
0.11577969	0.56906141	0.63703108
0.6284957	0.31397705	0.61798127
0.62272123	0.82504751	0.6253687
0.619556	0.05825828	0.1133592
0.63591723	0.56905931	0.11623233
0.10962377	0.30993259	0.13079529
0.13210553	0.81805341	0.13713753
0.11225865	0.0661229	0.63610494
0.11994525	0.56949855	0.62168275
0.62212196	0.31741915	0.62065987
0.60885988	0.82394833	0.63830052
0.62355075	0.06376358	0.1101477
0.64661932	0.56682014	0.12202928
0.11456695	0.3151601	0.12424723
0.13227352	0.81942927	0.14722881
0.12866462	0.0609414	0.64447169
0.1162006	0.56726117	0.61550388
0.61516069	0.32121658	0.62792501
0.60911591	0.81931649	0.6419038
0.62580647	0.06965091	0.10674462
0.64453757	0.56617189	0.11581937
0.11238587	0.31605053	0.11420978
0.12748052	0.8210643	0.14231871
0.13004827	0.05416589	0.64754681
0.11710706	0.56311336	0.62605773
0.6158128	0.31879771	0.62599411
0.6219773	0.81728505	0.62112013
0.62703472	0.06519484	0.10417405
0.63277887	0.56796627	0.09917442
0.1062725	0.31346592	0.10745131
0.12209762	0.81768612	0.12680815
0.1177482	0.0558609	0.63878421
0.1260567	0.56047769	0.64169018
0.62219993	0.31266409	0.61703724
0.62747058	0.82163654	0.59630496
0.62913523	0.05752279	0.10532596
0.62560239	0.56834396	0.09454926
0.10604146	0.31061379	0.10858532
0.1228638	0.81090877	0.12214278
0.11385971	0.06306364	0.62800391
0.13773196	0.56451832	0.64282272
0.62959447	0.31079953	0.60871041
0.62057009	0.82562798	0.59417232
0.63596001	0.05819868	0.1105145
0.6334103	0.5665381	0.10726578
0.11421807	0.31032156	0.10663865
0.12208001	0.80898371	0.13094637
0.13119147	0.06492866	0.62468707
0.13852577	0.5672507	0.62436047
0.62055882	0.31391984	0.60856737
0.61608346	0.8199634	0.61781365
0.6485062	0.06363986	0.11169956
0.64408619	0.56566559	0.11343157
0.12206299	0.31256966	0.09224852
0.11908515	0.81285154	0.13710705
0.14154266	0.05860311	0.62533608
0.1313869	0.5665859	0.60577383
0.61086869	0.31867918	0.61530212
0.62183429	0.81371655	0.64137994
0.65266812	0.06562927	0.10895014
0.6427635	0.56584862	0.10471886
0.12028655	0.31138717	0.07920279
0.11689026	0.81241023	0.13047927
0.13250454	0.04901682	0.61689143
0.13397398	0.56535457	0.61248791
0.62036787	0.31934796	0.6192781
0.63509932	0.81658293	0.64282618
0.64682527	0.060422	0.10892216
0.62731213	0.56619394	0.09674287
0.11498674	0.30706282	0.08285172
0.12054081	0.81013007	0.11818598
0.11768638	0.04728986	0.60249073
0.14204818	0.56466944	0.63231774
0.63377365	0.31491935	0.61223564
0.64104163	0.82461813	0.62811522
0.64795019	0.05382216	0.10876408
0.62189707	0.56515713	0.09895231
0.12280498	0.3064457	0.09029911
0.1235323	0.81315897	0.11426792
0.11334043	0.05580934	0.59484277
0.14499721	0.56384473	0.64269925
0.63814312	0.31054388	0.60026179
0.63331049	0.8242605	0.62052402
0.66017785	0.05226456	0.11674128
0.63179049	0.56270992	0.11752552
0.13913077	0.30910138	0.08905844
0.122018	0.8190469	0.12165875
0.12629426	0.0618163	0.59688023
0.14293897	0.55827323	0.61920951
0.62584942	0.30991297	0.59307249
0.62601772	0.81915055	0.63147695
0.66426968	0.05285061	0.12641692
0.64826771	0.56154568	0.13169646
0.14707933	0.31093785	0.08494821
0.12896655	0.82238744	0.12537798
0.14171845	0.05579844	0.61084171
0.13680411	0.5529389	0.5934806
0.62084459	0.31138986	0.59835909
0.62510688	0.81703674	0.64203294
0.64786462	0.05349704	0.12182795
0.64934336	0.56260959	0.1293335
0.14441062	0.30711983	0.08865575
0.14052786	0.82006397	0.11678372
0.14142593	0.04827778	0.61706306
0.1331349	0.55399745	0.59277729
0.63623817	0.31176967	0.60795757
0.63368365	0.81914329	0.63429746
0.64023415	0.05483365	0.11615442
0.63793686	0.56478249	0.1215928
0.13889205	0.30421298	0.09883028
0.15033969	0.81634946	0.10300994
0.13256465	0.05365491	0.60833225
0.1317048	0.55844849	0.6074571
0.65131706	0.30744817	0.60599924
0.64560395	0.82038516	0.61600012
0.65627289	0.0560983	0.11760017
0.63030258	0.56705184	0.11497833
0.14383529	0.30884565	0.10354155
0.14561281	0.81409648	0.10797045
0.12719288	0.06409098	0.59537133
0.12429886	0.56289677	0.61424404
0.65112857	0.30402414	0.59383258
0.63900173	0.81890765	0.61714246
0.66723001	0.05502624	0.12069101
0.63508885	0.56788113	0.11538104
0.15474424	0.31494022	0.09647855
0.12991005	0.81755931	0.11834358
0.13142843	0.05829096	0.58919781
0.11649284	0.56514175	0.60491571
0.6328522	0.30592064	0.58877712
0.63811373	0.81573114	0.63783187
0.6663936	0.05290927	0.11719993
0.64903548	0.56639772	0.12041792
0.15944606	0.3145286	0.0881397
0.12976928	0.82489837	0.11062805
0.13988586	0.04687629	0.597714
0.11866321	0.56396463	0.60374713
0.61727769	0.30790746	0.60623857
0.64143689	0.81612665	0.65165848
0.65441316	0.0529414	0.10566597
0.65207108	0.5651105	0.12373549
0.15554149	0.31015027	0.09125963
0.1439155	0.8283434	0.10431016
0.13696318	0.04592865	0.60347199
0.12268891	0.56405796	0.61716705
0.62858623	0.30657762	0.62174552
0.63777528	0.8192146	0.63455397
0.64108058	0.0568402	0.1011991
0.64049202	0.56775896	0.12555147
0.14868247	0.30859704	0.10197904
0.14734153	0.82536521	0.11105757
0.12591825	0.05816361	0.60273175
0.12132893	0.56400109	0.61895435
0.65018176	0.30536778	0.6211803
0.64030759	0.81898613	0.62038477
0.64040648	0.05991932	0.10630883
0.63603556	0.56846726	0.12377491
0.15467878	0.31221662	0.10490177
0.13561943	0.81963972	0.1198502
0.11944614	0.0682017	0.60358933
0.11891653	0.56343605	0.6085891
0.66366346	0.30728113	0.61895079
0.63560513	0.81321004	0.63352897
0.64735305	0.05832985	0.11019142
0.64735214	0.56589735	0.12154135
0.16333774	0.31640438	0.09642555
0.12561593	0.81610173	0.11979115
0.12128699	0.06265182	0.60849634
0.12354423	0.56372499	0.59707823
0.65668035	0.31069389	0.62276582
0.62993597	0.80748675	0.64867464
0.65236651	0.05367608	0.10774553
0.65829269	0.56299338	0.12707314
0.15940223	0.3157923	0.0914708
0.13025394	0.82053967	0.11138433
0.13264288	0.04902197	0.61875891
0.13217189	0.56527257	0.60109756
0.63883035	0.31265686	0.63068627
0.6334578	0.80784165	0.64035963
0.64899502	0.05234204	0.10248101
0.65169133	0.56226834	0.12927605
0.15160262	0.31358755	0.09919328
0.14121574	0.82547281	0.10725787
0.1436931	0.04134084	0.61138222
0.13331739	0.56776585	0.61388312
0.64077817	0.31046291	0.63324264
0.63786297	0.81552475	0.62364959
0.63912759	0.05952558	0.10436136
0.63816439	0.56415059	0.12089612
0.14963901	0.31491322	0.11188891
0.13833044	0.82285002	0.11513878
0.14218709	0.0436019	0.60198207
0.12836842	0.56616985	0.62137426
0.65419174	0.30807651	0.62681223
0.64120498	0.8175437	0.62383033
0.63868073	0.06742579	0.11765251
0.63684599	0.56401252	0.11690141
0.15708263	0.31690618	0.11320395
0.12436619	0.81962293	0.12385855
0.13989489	0.05340215	0.61265488
0.128547	0.56404511	0.62029579
0.65863263	0.3116482	0.61990682
0.63550366	0.81292885	0.6387514
0.64857284	0.06589843	0.12818775
0.64622304	0.5615896	0.11890896
0.16262271	0.31674549	0.10630138
0.11609408	0.81739528	0.12675547
0.14031477	0.0623917	0.61970372
0.13076045	0.5643697	0.6181987
0.65523904	0.31456325	0.62601114
0.62097136	0.81081024	0.6403485
0.65481407	0.05789994	0.12629109
0.6517795	0.56154746	0.12204242
0.15538638	0.31488016	0.1072725
0.12417995	0.81407792	0.11986059
0.1407307	0.06520312	0.61436916
0.13655571	0.56323579	0.62000489
0.65058635	0.31267188	0.63726745
0.61783305	0.81321333	0.62477944
0.65233938	0.05615109	0.11929591
0.64984157	0.56435314	0.12149375
0.14315962	0.3123492	0.11925683
0.13362864	0.81198794	0.11131169
0.14222895	0.06228664	0.6087866
0.14181622	0.56357732	0.62507908
0.65753664	0.30820396	0.63715718
0.62218669	0.81907087	0.6125657
0.63361252	0.06207269	0.11899075
0.64294877	0.56794329	0.11764731
0.13645241	0.3117521	0.12948167
0.13165358	0.81159259	0.11485614
0.13782026	0.05630927	0.61199315
0.1411985	0.56336858	0.62699351
0.66882257	0.30675297	0.627516
0.62768445	0.82188931	0.61814587
0.62724644	0.06630178	0.12847659
0.64233162	0.56825765	0.11774038
0.14145729	0.31352997	0.12641013
0.12087898	0.81367593	0.1272535
0.13120891	0.05685713	0.62645681
0.14235393	0.56121104	0.62654196
0.66658056	0.31151172	0.62451329
0.62488536	0.81727482	0.63229111
0.63991442	0.06119758	0.13760756
0.65356903	0.56684702	0.12151898
0.1473985	0.31160241	0.11957287
0.11663043	0.81549999	0.13623805
0.13205837	0.06155466	0.63830285
0.14573496	0.56182144	0.63019903
0.65228727	0.31517129	0.63570852
0.61224068	0.81365928	0.63840908
0.64602571	0.05512777	0.13596777
0.65945822	0.56772483	0.12218064
0.14643697	0.30922393	0.12206606
0.12229319	0.81533908	0.12847763
0.14169617	0.06022999	0.63842594
0.1454207	0.56250436	0.63962467
0.64278236	0.31381972	0.64758266
0.6139024	0.81663116	0.62671444
0.64121113	0.05787937	0.12819712
0.65137088	0.56896256	0.12084539
0.14670312	0.31161039	0.13323578
0.12781526	0.81695602	0.11686517
0.14669897	0.05794312	0.63361636
0.14157992	0.56222962	0.64656744
0.64649695	0.31095009	0.64596931
0.62715213	0.82142897	0.61668343
0.63452573	0.06602701	0.12594909
0.6407742	0.56920654	0.12333729
0.14791541	0.31301465	0.14011437
0.12076617	0.82049692	0.12527226
0.14224881	0.0557813	0.63019735
0.13668341	0.56242258	0.64223824
0.65410194	0.31001125	0.63219422
0.63930851	0.82279751	0.62450085
0.63619102	0.07028903	0.13229951
0.63930896	0.57042213	0.13095874
0.14428138	0.31112073	0.13721171
0.11063281	0.82282097	0.14060642
0.13194366	0.05904859	0.63695442
0.13554421	0.56194842	0.63185676
0.65068966	0.31439364	0.62491099
0.64422225	0.81913637	0.64214027
0.64367605	0.06601799	0.13615598
0.6479048	0.57196095	0.13630158
0.13987503	0.30857904	0.13423679
0.10669568	0.82183482	0.13667541
0.1219274	0.06868761	0.6473466
0.13967839	0.56173955	0.6347247
0.63923621	0.31862038	0.63692237
0.63878387	0.81685571	0.65446876
0.63860787	0.05739963	0.1297752
0.6469287	0.5739114	0.13470002
0.13445973	0.30891838	0.1380849
0.11261237	0.81928936	0.11658283
0.11677978	0.06451636	0.65099123
0.13935459	0.5633308	0.6448051
0.63092087	0.31726781	0.65272243
0.64063695	0.82087485	0.64888975
0.62534969	0.05654591	0.12380497
0.63468184	0.57314399	0.13150918
0.12978024	0.31442104	0.1463424
0.12265355	0.82022792	0.10528153
0.120827	0.05762252	0.65616527
0.1343613	0.56659834	0.64638433
0.62940622	0.31495588	0.65071268
0.64571216	0.82746199	0.63501269
0.62106055	0.06592203	0.1320691
0.62618256	0.57037332	0.13149849
0.12861667	0.31754098	0.14884148
0.12188932	0.82620659	0.12105454
0.12559049	0.05851909	0.6616026
0.13350459	0.57275641	0.64050425
0.63196272	0.31684751	0.63876314
0.64108988	0.83255635	0.63971503
0.63613708	0.07277425	0.13782851
0.62273017	0.57063109	0.13430376
0.12359872	0.31489163	0.14556865
0.11538922	0.83169682	0.14007785
0.12451128	0.06440776	0.665851
0.13528814	0.57824253	0.63506328
0.62777108	0.32099629	0.63427466
0.63532114	0.83378445	0.65280253
0.64875902	0.06812831	0.13409003
0.61806402	0.57188092	0.13987158
0.11568068	0.31354088	0.14129124
0.1184695	0.83027345	0.13976551
0.11754584	0.06942901	0.66901225
0.12921148	0.58083336	0.63777798
0.62225564	0.324122	0.64245258
0.62781166	0.83136077	0.65116182
0.64551318	0.05849108	0.1319448
0.60986329	0.57189324	0.1422537
0.11094458	0.31949159	0.13844914
0.13136201	0.82376398	0.12753181
0.11396993	0.06955444	0.66219326
0.11648847	0.58377556	0.64626358
0.62796125	0.32499135	0.64783677
0.63038846	0.82896836	0.64043892
0.63422533	0.05688848	0.1336897
0.60580086	0.57004769	0.14353035
0.1069359	0.32835148	0.13908991
0.13867319	0.8233517	0.12260392
0.11696103	0.06865556	0.65455164
0.11381171	0.58637046	0.64962241
0.62615388	0.3244025	0.632447
0.64381223	0.83041072	0.63411221
0.6294154	0.0653713	0.14518773
0.61261154	0.5671818	0.15017852
0.10119213	0.3308515	0.1385102
0.12313567	0.82989079	0.13610245
0.11782596	0.06953652	0.65786854
0.12117917	0.58949028	0.64806522
0.6138943	0.3249099	0.61671448
0.64917644	0.83376784	0.64511766
0.63187461	0.07461106	0.15411166
0.62103669	0.57095747	0.15306126
0.08998161	0.32466819	0.13815465
0.1081248	0.8359192	0.15559639
0.11298875	0.07152468	0.65857258
0.1242647	0.58666876	0.64862658
0.60256988	0.32698573	0.62154001
0.64620702	0.83652512	0.65525882
0.62871277	0.07181779	0.15265878
0.61680139	0.5785545	0.14869419
0.08011359	0.32053935	0.14145445
0.11652955	0.83291367	0.15359578
0.10780602	0.07482753	0.65441219
0.11983928	0.57938973	0.65224701
0.60216206	0.32850474	0.64010091
0.63603411	0.83532209	0.64188696
0.61019225	0.06452732	0.14689776
0.60268553	0.57977816	0.14722565
0.07881054	0.32685359	0.13903748
0.1357253	0.82494702	0.14023042
0.11324606	0.07646194	0.65076911
0.11185583	0.58170148	0.65578505
0.60543933	0.32983666	0.65305909
0.62143347	0.83115563	0.62433721
0.59627048	0.06535087	0.14307996
0.59852861	0.57353156	0.14684832
0.08081016	0.33523249	0.13861852
0.14224911	0.82601004	0.13156991
0.12578894	0.07639229	0.65079821
0.10628952	0.58578885	0.65803787
0.60609444	0.32958649	0.6435129
0.61375588	0.8278405	0.62218293
0.5966907	0.07536527	0.13675197
0.60502624	0.56872298	0.14488495
0.08250159	0.33419758	0.14612923
0.13307979	0.83196175	0.14082212
0.12855829	0.07728358	0.65468743
0.10697032	0.58498724	0.65711607
0.60404461	0.32810322	0.63291801
0.61084188	0.82887712	0.63107571
0.60347054	0.07900484	0.12939337
0.60660882	0.57315254	0.14273987
0.08121126	0.32462747	0.14524485
0.11992344	0.83183816	0.15351866
0.12244006	0.07893935	0.65534342
0.10858965	0.58175303	0.65456577
0.60333445	0.32541223	0.63985067
0.62023093	0.82958386	0.63934015
0.60765934	0.07260483	0.12946003
0.60276647	0.58239903	0.13975507
0.07847162	0.32165327	0.14036372
0.12000306	0.82591295	0.1508883
0.11660796	0.08409036	0.65172976
0.10404928	0.5796301	0.65096851
0.60753517	0.32445978	0.65233658
0.63721005	0.82607203	0.63049396
0.59784896	0.0699576	0.13764597
0.60522474	0.58372529	0.13967009
0.08012096	0.3301178	0.14612622
0.12681791	0.82279561	0.13432229
0.11140495	0.08629295	0.64354033
0.09185131	0.58018964	0.65248007
0.60978738	0.32691537	0.65467352
0.64645298	0.82408255	0.62822444
0.58062392	0.07556108	0.14399229
0.61411528	0.57777025	0.14396023
0.08108217	0.33513909	0.15602654
0.13116383	0.82867521	0.12239384
0.11316653	0.08100651	0.63817775
0.08163057	0.58125214	0.6560013
0.60270312	0.32691546	0.64883947
0.64334331	0.82585082	0.646741
0.5750642	0.07928157	0.13527227
0.61968053	0.57333587	0.14338845
0.07786532	0.328769	0.16181139
0.12832216	0.83669311	0.13031975
0.11149002	0.0751942	0.64101489
0.08934875	0.58122429	0.64618055
0.59468297	0.32365011	0.64679278
0.6295208	0.82790166	0.65424678
0.58008028	0.0751246	0.12793165
0.61141331	0.57596293	0.13653539
0.07892941	0.31820876	0.15708751
0.12198682	0.83822175	0.14572347
0.1060583	0.07543825	0.64502522
0.11265974	0.5786423	0.63655077
0.59559914	0.32005988	0.65621177
0.62154448	0.82869207	0.64454893
0.58965752	0.06618975	0.13496718
0.59841787	0.58166268	0.12861853
0.08698501	0.31985473	0.14672361
0.12023202	0.83410507	0.14579597
0.1040418	0.07873513	0.64727918
0.12254044	0.57534089	0.6367582
0.6061312	0.32059431	0.66112383
0.63195086	0.82678157	0.633914
0.59639589	0.06092885	0.14358307
0.59845398	0.5796541	0.12326568
0.09170002	0.32798563	0.14284871
0.1251679	0.83113324	0.13547487
0.10254034	0.07614904	0.64298337
0.11023157	0.57593872	0.64004384
0.61526843	0.32303264	0.65297805
0.63398886	0.82513504	0.63329851
0.59660415	0.06259256	0.14369479
0.60782142	0.57395148	0.12559772
0.08937257	0.33037423	0.14861697
0.13097468	0.83290108	0.13072262
0.10707183	0.06931407	0.63271281
0.10335473	0.58143987	0.64650982
0.61446984	0.32263937	0.64475649
0.6299554	0.82586968	0.64022482
0.60014981	0.06841519	0.13879521
0.61211579	0.57364177	0.13075188
0.09189389	0.32480393	0.1496809
0.12855822	0.83765582	0.13768189
0.11122767	0.06572632	0.62933947
0.11568418	0.58749088	0.64930865
0.60742263	0.3197024	0.64677571
0.63427586	0.82938437	0.64479818
0.60103814	0.07002762	0.13526047
0.60907821	0.57724199	0.12898302
0.10038988	0.31600924	0.14219856
0.1178595	0.83792624	0.14161607
0.1052672	0.06635192	0.63293094
0.13069725	0.58688464	0.64514682
0.60522688	0.31738509	0.65443788
0.64203263	0.8331111	0.64109782
0.60380581	0.06488514	0.14054913
0.60109331	0.5778738	0.12113692
0.10423481	0.31709327	0.13563188
0.1114257	0.83285518	0.13467132
0.10257957	0.06947106	0.6358875
0.12755927	0.57895584	0.6336263
0.6119816	0.3188656	0.6548559
0.64821489	0.83301151	0.63298501
0.61016017	0.05856743	0.14052193
0.59929423	0.57364409	0.1152757
0.10334937	0.32609806	0.14007774
0.1135942	0.82793754	0.13055302
0.10192684	0.07130771	0.63386424
0.11530833	0.57396671	0.62960429
0.61805181	0.32486913	0.64793237
0.6389344	0.82916443	0.63132799
0.6140354	0.05747309	0.13048047
0.60944631	0.57021358	0.12080919
0.1014002	0.32774092	0.1453116
0.12165703	0.82676242	0.13489377
0.10639153	0.06949631	0.62974689
0.11290668	0.57671095	0.63371813
0.61265931	0.32699524	0.64354214
0.62881736	0.82833706	0.63047373
0.62230434	0.06360998	0.12024574
0.6171514	0.57014953	0.12909781
0.10375765	0.32176441	0.14241864
0.12392831	0.82777726	0.14270798
0.11276338	0.06556518	0.63223626
0.12171547	0.57983498	0.63818932
0.60766827	0.32454601	0.64027258
0.63134565	0.8297447	0.62413023
0.62654532	0.06746034	0.11694859
0.61690268	0.57243226	0.12563254
0.1116199	0.31645506	0.13722009
0.12086926	0.8259571	0.14357165
0.11085508	0.06241728	0.63997977
0.13302118	0.57828257	0.64161252
0.61545143	0.32169582	0.63639058
0.63917967	0.8304212	0.61532322
0.6265856	0.06332636	0.1207578
0.61817816	0.57067112	0.11745404
0.11968968	0.31943847	0.13498994
0.12195396	0.82253373	0.13224987
0.10888645	0.06325869	0.6435268
0.13400031	0.56994284	0.64447925
0.62850239	0.32040149	0.62985748
0.64462618	0.82844905	0.61083273
0.62825232	0.05799958	0.12430439
0.6272818	0.56361884	0.11611757
0.12071153	0.32640277	0.13796309
0.12102144	0.81974878	0.12424671
0.11255151	0.06631566	0.63464233
0.12416078	0.56439949	0.65018079
0.63611457	0.32298703	0.62481104
0.64161976	0.8221993	0.61915586
0.63279599	0.06012667	0.12019002
0.63859956	0.56233602	0.12357278
0.11614302	0.32432798	0.13551373
0.12366476	0.81829059	0.12538333
0.12082297	0.06566243	0.62549552
0.11534598	0.56789647	0.65656091
0.63780086	0.32539139	0.62725673
0.64043768	0.8185036	0.63264078
0.64063503	0.06690914	0.11287779
0.63983189	0.56589559	0.13332136
0.11690958	0.31270703	0.12494361
0.12641896	0.81887611	0.12868325
0.13155517	0.06323084	0.63324758
0.11938365	0.5709901	0.65214716
0.64003904	0.32178759	0.62514949
0.64747967	0.8214967	0.63459938
0.64719172	0.06578083	0.10816847
0.63439256	0.56627495	0.13652888
0.12725031	0.30867193	0.11737835
0.12034825	0.81805613	0.12756807
0.13417934	0.06245758	0.64533689
0.13348025	0.56652902	0.63991726
0.64489709	0.31761786	0.61780101
0.65248052	0.82653502	0.62894364
0.64976326	0.05983457	0.11259013
0.64165117	0.56309424	0.13119846
0.13880133	0.3139052	0.11403471
0.12212914	0.81648029	0.11977082
0.1291884	0.06452084	0.6407345
0.14096003	0.558173	0.63249288
0.64991631	0.31650784	0.61275514
0.65240891	0.82548604	0.62413718
0.65144311	0.05988521	0.11853269
0.65447234	0.56032575	0.13047547
0.14444901	0.31571488	0.1143966
0.13401262	0.81483969	0.11600426
0.12328578	0.06795547	0.6261142
0.13370227	0.55407185	0.63709048
0.64678174	0.31874736	0.61350472
0.64562083	0.81754432	0.62875043
0.65237846	0.06179068	0.11741308
0.65747637	0.56444306	0.14067629
0.14410764	0.30671902	0.11459827
0.14477679	0.81216468	0.12179991
0.12243274	0.06278096	0.6210299
0.12691481	0.56058161	0.64181074
0.63740389	0.32036405	0.62020465
0.63382356	0.81276854	0.63304968
0.65479798	0.06207307	0.11266077
0.65122407	0.57052417	0.14526511
0.1496607	0.29729541	0.11266109
0.14674061	0.81198667	0.12382219
0.13442515	0.05566707	0.62628322
0.13566738	0.56704421	0.62899219
0.63379729	0.31411529	0.61536686
0.63122724	0.81714506	0.62880936
0.65505649	0.05909541	0.10984429
0.64702422	0.5716142	0.13327108
0.16483115	0.29924017	0.10892499
0.1359182	0.81276953	0.11915773
0.14996622	0.05377929	0.62847081
0.1461518	0.56488525	0.61409715
0.63759564	0.3065806	0.60362584
0.6348605	0.82153916	0.62414973
0.64938505	0.05706591	0.11420699
0.65731665	0.56866951	0.11724488
0.17780387	0.30731481	0.10423454
0.12663048	0.81335053	0.11335911
0.15420208	0.05263272	0.62300029
0.14276711	0.56095152	0.61361312
0.64280534	0.30361411	0.60427874
0.63543254	0.82044572	0.63149557
0.65170504	0.06092827	0.11809514
0.67292762	0.56505	0.11091282
0.17454708	0.30984753	0.09516175
0.12914454	0.81521138	0.11300386
0.14681682	0.05017501	0.61599309
0.13410551	0.56133475	0.61625682
0.64593676	0.30317915	0.60972152
0.62765345	0.81542206	0.6426482
0.66367708	0.0652593	0.11677332
0.67227791	0.5674252	0.12038585
0.16023969	0.30567729	0.0890295
0.13475582	0.81602166	0.11770261
0.14210952	0.04576578	0.61623693
0.12992973	0.56545055	0.61143086
0.64658974	0.30330274	0.61389925
0.61747136	0.80998833	0.65091312
0.66753887	0.06438921	0.11560761
0.66181384	0.5712762	0.1326267
0.15282306	0.30201673	0.0918451
0.13427932	0.81664834	0.11360923
0.15159659	0.04377439	0.62550859
0.13304395	0.56569208	0.6002753
0.64669335	0.30113911	0.60989632
0.61936393	0.80810724	0.64335908
0.6662887	0.05847819	0.11304738
0.65667815	0.56733821	0.1249122
0.15829641	0.30323585	0.09563909
0.12502945	0.81842373	0.10511809
0.1565617	0.04779401	0.63027714
0.14304597	0.55784237	0.5967565
0.65086585	0.2982278	0.59793603
0.62038381	0.80733397	0.63452955
0.66766908	0.05072297	0.11053797
0.66391298	0.56473582	0.10835794
0.16905003	0.30717155	0.09833245
0.12015762	0.81761134	0.10340563
0.14938796	0.0512118	0.6224839
0.15089305	0.54932436	0.59965377
0.65927492	0.29646655	0.5998861
0.61158098	0.80481569	0.63121811
0.67000464	0.04725733	0.1113195
0.67650133	0.56706742	0.10891552
0.17445481	0.30916422	0.09958731
0.13064114	0.81461997	0.10585054
0.14890506	0.05142396	0.60970826
0.14884253	0.54691347	0.5960983
0.6633666	0.29635677	0.61518254
0.60260439	0.80485128	0.63190351
0.67398152	0.04901714	0.11243772
0.68288266	0.5681095	0.11864117
0.1676041	0.30733919	0.10121175
0.14107679	0.80968952	0.10713526
0.15742789	0.04747888	0.60548767
0.14456168	0.55336484	0.58866812
0.65982031	0.30025604	0.62540776
0.59742492	0.80461541	0.63330741
0.67166646	0.05440534	0.11799188
0.67425439	0.56502273	0.1168634
0.15647626	0.30394865	0.10565478
0.13725721	0.80580251	0.09794079
0.17418294	0.04157393	0.60997316
0.14665335	0.56048677	0.58114113
0.6595593	0.30323856	0.62228842
0.6131811	0.80299077	0.63494013
0.6640433	0.05779251	0.11787725
0.66269274	0.55606493	0.09895224
0.15459791	0.30283505	0.10350169
0.12822282	0.8070076	0.09254441
0.17719376	0.04069413	0.61304635
0.15001797	0.56037113	0.58674273
0.66553918	0.30212368	0.61470794
0.61988612	0.80387098	0.63674277
0.66706677	0.05400932	0.11121398
0.66046079	0.54834987	0.09278335
0.161793	0.30451104	0.09733703
0.12352184	0.80964732	0.10068834
0.16351938	0.04271377	0.60898489
0.15354761	0.55303744	0.60241546
0.67010349	0.3020739	0.61911045
0.61000988	0.80584343	0.63466241
0.68010476	0.04820055	0.11573862
0.66634938	0.54821827	0.10595516
0.17085944	0.30803268	0.09808079
0.12545718	0.8090683	0.11063361
0.15450783	0.04555772	0.59682391
0.15018935	0.54727403	0.61158287
0.67616207	0.30273631	0.63047717
0.61209087	0.80520879	0.63108695
0.68627124	0.04580198	0.12290519
0.66865197	0.55211813	0.11844925
0.17300421	0.30839903	0.10310622
0.1279695	0.80777258	0.11354425
0.15445281	0.04907344	0.58777986
0.13990846	0.54848415	0.6084858
0.67931838	0.30454451	0.63536467
0.62919472	0.79922555	0.63266232
0.68396193	0.04721266	0.13184271
0.66263301	0.55488749	0.11917903
0.16617883	0.30613609	0.10895582
0.12598927	0.80811635	0.10426865
0.15636004	0.04975607	0.59599621
0.1397255	0.55330386	0.60356027
0.67290505	0.30533982	0.63325026
0.64268736	0.79539085	0.6337811
0.67078799	0.04818763	0.13621214
0.64938951	0.55453137	0.10842314
0.16320236	0.3045853	0.11045109
0.12406846	0.81046337	0.09291278
0.15334188	0.04756015	0.59908978
0.14679495	0.556106	0.59846291
0.67107627	0.30407302	0.62672942
0.63814845	0.8016457	0.62579377
0.65847558	0.04709487	0.12353251
0.64618833	0.55278957	0.09784007
0.16889478	0.30493366	0.1079577
0.12816411	0.81338422	0.09778852
0.14007715	0.04698325	0.58962017
0.14457578	0.55502851	0.60056283
0.67600589	0.30518725	0.62391413
0.61729051	0.81260018	0.6161561
0.65968382	0.04991758	0.11837392
0.64919584	0.55428023	0.10120026
0.17626219	0.30593761	0.10475302
0.13777899	0.81031521	0.12003485
0.13495534	0.04748996	0.5840278
0.1345881	0.55190005	0.60702164
0.67477503	0.30598485	0.63058678
0.60756012	0.81731785	0.61514074
0.66783238	0.05449215	0.12390639
0.64576996	0.55978929	0.115919
0.17657286	0.3058605	0.09879074
0.14055272	0.80585328	0.13824396
0.14373446	0.04852575	0.59249155
0.12760552	0.55270409	0.61157535
0.66554957	0.30845988	0.63991014
0.61961938	0.81357501	0.63031812
0.67025084	0.05567566	0.12656564
0.63641343	0.56663839	0.12252734
0.16631338	0.30532947	0.09392828
0.13043691	0.80962094	0.14475277
0.15426001	0.04912959	0.60651711
0.12821597	0.5571058	0.62044089
0.65576917	0.3119429	0.64287543
0.63972225	0.80936498	0.64353184