dataVASP_5:F6
    1.00
 9.8580532074 -5.6915497780 0.0000000000
 0.0000000000 11.3830995560 0.0000000000
 0.0000000000 0.0000000000 13.9464588165
    F Mg Zr He
    72 12 12 18000
Direct
    0.41870  0.58638  0.58382
    0.75204  0.25305  0.25049
    0.08130  0.41362  0.41618
    0.41463  0.08029  0.08284
    0.33232  0.41870  0.41618
    0.66566  0.08537  0.08284
    0.08638  0.16768  0.41618
    0.41971  0.83434  0.08284
    0.83232  0.91870  0.41618
    0.16566  0.58537  0.08284
    0.08130  0.91362  0.41618
    0.41463  0.58029  0.08284
    0.58029  0.16566  0.91716
    0.91362  0.83232  0.58382
    0.83434  0.41463  0.91716
    0.16768  0.08130  0.58382
    0.58537  0.41971  0.91716
    0.91870  0.08638  0.58382
    0.58130  0.91362  0.41618
    0.91463  0.58029  0.08284
    0.08638  0.66768  0.41618
    0.41971  0.33434  0.08284
    0.33434  0.91463  0.91716
    0.66768  0.58130  0.58382
    0.08537  0.41971  0.91716
    0.41870  0.08638  0.58382
    0.58029  0.66566  0.91716
    0.91362  0.33232  0.58382
    0.58638  0.66768  0.41618
    0.91971  0.33434  0.08284
    0.33232  0.91870  0.41618
    0.66566  0.58537  0.08284
    0.58537  0.91971  0.91716
    0.91870  0.58638  0.58382
    0.08029  0.66566  0.91716
    0.41362  0.33232  0.58382
    0.33434  0.41463  0.91716
    0.66768  0.08130  0.58382
    0.41362  0.83232  0.58382
    0.74695  0.49899  0.25049
    0.16768  0.58130  0.58382
    0.50101  0.24796  0.25049
    0.24796  0.74695  0.74951
    0.58130  0.41362  0.41618
    0.25305  0.50101  0.74951
    0.58638  0.16768  0.41618
    0.49899  0.75204  0.74951
    0.83232  0.41870  0.41618
    0.16566  0.08537  0.08284
    0.91971  0.83434  0.08284
    0.91463  0.08029  0.08284
    0.83434  0.91463  0.91716
    0.08029  0.16566  0.91716
    0.00101  0.74796  0.25049
    0.74695  0.99899  0.25049
    0.25204  0.25305  0.25049
    0.99899  0.25204  0.74951
    0.25305  0.00101  0.74951
    0.24695  0.99899  0.25049
    0.75204  0.75305  0.25049
    0.00101  0.24796  0.25049
    0.75305  0.00101  0.74951
    0.24796  0.24695  0.74951
    0.25204  0.75305  0.25049
    0.50101  0.74796  0.25049
    0.24695  0.49899  0.25049
    0.74796  0.24695  0.74951
    0.49899  0.25204  0.74951
    0.75305  0.50101  0.74951
    0.99899  0.75204  0.74951
    0.74796  0.74695  0.74951
    0.08537  0.91971  0.91716
    0.33333  0.16667  0.66667
    0.66667  0.83333  0.33333
    0.83333  0.16667  0.66667
    0.16667  0.83333  0.33333
    0.83333  0.66667  0.66667
    0.16667  0.33333  0.33333
    0.00000  0.00000  0.00000
    0.66667  0.33333  0.33333
    0.50000  0.00000  0.00000
    0.50000  0.50000  0.00000
    0.00000  0.50000  0.00000
    0.33333  0.66667  0.66667
    0.33333  0.16667  0.16667
    0.66667  0.83333  0.83333
    0.83333  0.16667  0.16667
    0.16667  0.83333  0.83333
    0.83333  0.66667  0.16667
    0.16667  0.33333  0.83333
    0.00000  0.00000  0.50000
    0.66667  0.33333  0.83333
    0.50000  0.00000  0.50000
    0.50000  0.50000  0.50000
    0.00000  0.50000  0.50000
    0.33333  0.66667  0.16667
0.33205896 0.16182757 0.70602662
0.66710460 0.82941113 0.37592560
0.83263615 0.16814885 0.70936587
0.16241344 0.83037008 0.37636347
0.82924994 0.67118770 0.70745365
0.16278610 0.32451537 0.37166532
0.00290657 0.00723167 0.04229740
0.67438797 0.33763556 0.37298751
0.50238184 0.00603204 0.04240021
0.50299772 0.50779308 0.03967098
0.00185664 0.50703028 0.04031930
0.33404479 0.65980634 0.71354947
0.33121834 0.16095704 0.70778641
0.66491883 0.82792576 0.37665182
0.83442319 0.16704415 0.71015436
0.16691732 0.83142503 0.37485890
0.82900315 0.67128300 0.70431575
0.15877077 0.32778752 0.37115990
0.00682988 0.00504140 0.04243605
0.67211821 0.33816984 0.37619542
0.49928963 0.00520702 0.04152105
0.50791627 0.50809580 0.03924981
0.00070174 0.50263292 0.04127527
0.33491754 0.66132858 0.71385026
0.32874374 0.16079565 0.71245971
0.66711918 0.83077107 0.37957990
0.83488237 0.16601266 0.70923371
0.17705270 0.83903526 0.37412656
0.83036802 0.67005648 0.70172068
0.15669937 0.33693768 0.37486405
0.00898962 0.99927094 0.04155214
0.66762323 0.33666536 0.38090804
0.49425698 0.00043650 0.03832466
0.51113481 0.50488568 0.04001820
0.00122783 0.49830817 0.03830130
0.33704739 0.66569258 0.70932911
0.32887065 0.16281603 0.71247964
0.66766754 0.83171399 0.37969299
0.83423884 0.16686994 0.71041519
0.17964141 0.84339644 0.37300676
0.82946004 0.66904692 0.70325047
0.15587310 0.33923291 0.37407519
0.00894115 0.00058840 0.04110033
0.66948607 0.33583464 0.38057714
0.49305966 0.99833443 0.03792341
0.50848528 0.50481355 0.04140848
0.00449775 0.49827846 0.03645753
0.33999398 0.66540842 0.70624614
0.33069206 0.16088306 0.70880229
0.65909513 0.82815403 0.37744433
0.83606108 0.16824117 0.71284222
0.17181001 0.83762786 0.37540638
0.82841903 0.67008030 0.70590802
0.15255369 0.32808993 0.36871784
0.00761201 0.00621036 0.04048248
0.67573743 0.33770813 0.37727011
0.49639940 0.00264344 0.03911481
0.50563227 0.50972240 0.04092377
0.00406873 0.49911678 0.03820941
0.34079315 0.66232423 0.70702906
0.32794708 0.15378436 0.70841635
0.65113316 0.82255082 0.37700123
0.84085863 0.17121666 0.71320199
0.16925517 0.82949949 0.37993305
0.82686123 0.66972425 0.70647193
0.15097020 0.31609881 0.36472790
0.00437234 0.00645415 0.04130306
0.67900330 0.33971767 0.37500427
0.49844372 0.00822590 0.03858712
0.50656434 0.51379804 0.04147156
0.99929067 0.49973513 0.04014300
0.33719691 0.66229392 0.70752267
0.32524082 0.15502669 0.71072690
0.65109510 0.81877796 0.37641907
0.84482975 0.17418098 0.71405747
0.17737870 0.83041250 0.37759052
0.82303949 0.66378378 0.70425540
0.15374024 0.32068090 0.37018112
0.99902002 0.99722719 0.04455903
0.67445830 0.33666140 0.37558227
0.49573844 0.00426046 0.03615434
0.50903504 0.51125770 0.04520261
0.99662453 0.49917246 0.04141951
0.33475764 0.66760617 0.70647219
0.33048248 0.16651693 0.71021272
0.65779225 0.82206958 0.37379370
0.84517857 0.17710396 0.71431039
0.18155493 0.84297324 0.37278504
0.82375854 0.65990472 0.69934801
0.15856625 0.33450326 0.37958289
0.99772525 0.98631883 0.04590533
0.66363460 0.33215719 0.37867608
0.49279561 0.99554297 0.03301178
0.51159805 0.50395764 0.04851678
0.99677885 0.49620969 0.04077702
0.33664749 0.67429122 0.70713383
0.34003715 0.17444992 0.70593248
0.66125849 0.82661415 0.36513234
0.84480065 0.18088097 0.71386698
0.17675920 0.85080171 0.37124226
0.82460060 0.66270239 0.69864752
0.16061142 0.34007652 0.37935815
0.00069050 0.98879930 0.04658921
0.66076398 0.33331112 0.37337307
0.49749355 0.99491165 0.03516201
0.51182335 0.50197724 0.04948918
0.99613266 0.49038728 0.04257883
0.33972856 0.67382510 0.71285069
0.34089160 0.16915162 0.70116144
0.65703745 0.82216613 0.35925061
0.84836610 0.18440306 0.71052202
0.16963185 0.84681299 0.37537649
0.82323882 0.66445496 0.70392483
0.16437578 0.33536782 0.37224994
0.00136691 0.00438526 0.04778073
0.66941238 0.33482117 0.36986525
0.50048966 0.99973258 0.04031217
0.51168873 0.50788694 0.04650074
0.99371577 0.48736238 0.04585510
0.33833411 0.66385899 0.71819598
0.33479840 0.16124466 0.70017411
0.65153741 0.81486119 0.36262092
0.85372543 0.18580100 0.70195182
0.16714669 0.84012957 0.38382497
0.82462122 0.66046577 0.70675193
0.16914540 0.33011507 0.36959571
0.99799665 0.01206716 0.04810799
0.67096352 0.32806687 0.37899033
0.49426074 0.00187951 0.04064697
0.51714729 0.51433718 0.04062013
0.99154990 0.49221562 0.04545227
0.33245187 0.65615683 0.71897049
0.33172753 0.16290450 0.70516887
0.65620177 0.81882366 0.36724408
0.85277894 0.18427554 0.69719143
0.17224862 0.84139980 0.38768978
0.82663210 0.65434695 0.70655774
0.17456004 0.33822425 0.37226752
0.99777093 0.00428259 0.04499961
0.66005774 0.31722354 0.38714842
0.48773206 0.99828948 0.03880747
0.51659431 0.51501030 0.03803789
0.99752621 0.49805273 0.03994278
0.32877485 0.66311357 0.71181932
0.32785375 0.16558352 0.70827979
0.67255422 0.83527658 0.36939459
0.84177140 0.17662673 0.70218092
0.17963554 0.85095444 0.38268075
0.83127353 0.65609459 0.70528855
0.17776369 0.35648457 0.37885903
0.99899531 0.99589431 0.04190101
0.65375691 0.31030968 0.38385669
0.48891068 0.99106076 0.03764453
0.50431145 0.50691287 0.03907189
0.00184427 0.50027358 0.03807583
0.33007769 0.67606828 0.70364885
0.32296076 0.16380446 0.70791691
0.68652672 0.84930739 0.37244223
0.83464673 0.16435380 0.70959219
0.17267560 0.85196348 0.37482645
0.83910599 0.66733116 0.70788416
0.18008988 0.35504357 0.37733217
0.99832546 0.99916552 0.04086987
0.66083140 0.31465084 0.37478646
0.49479905 0.98650084 0.03792822
0.48797553 0.49269643 0.04035257
0.00064614 0.49715273 0.04219274
0.32971376 0.67491661 0.70439345
0.32924174 0.16408695 0.70893425
0.68618701 0.85174169 0.37997936
0.83532822 0.15674733 0.71200946
0.15672232 0.83218843 0.37206896
0.84211958 0.67542229 0.70968326
0.17647509 0.33460753 0.37354601
0.99797076 0.00411835 0.03657833
0.67027152 0.32893017 0.37105277
0.49946468 0.98722838 0.04028037
0.47926080 0.48888293 0.03797054
0.99963011 0.49435712 0.04485909
0.32879717 0.66002760 0.71192642
0.33750044 0.16174062 0.70797484
0.68008450 0.84935609 0.38772319
0.83159451 0.15233042 0.70546454
0.14492493 0.80811824 0.37691811
0.84123842 0.67605513 0.70741072
0.16847831 0.32459652 0.37671461
0.99958900 0.00160709 0.02982152
0.66813088 0.33925090 0.37579323
0.49976235 0.99330078 0.04187130
0.48767085 0.49689794 0.03613539
0.99959495 0.50335031 0.04207746
0.33219406 0.66299867 0.71205651
0.33733178 0.16286005 0.71116314
0.68207840 0.84665305 0.38832340
0.82233816 0.14989417 0.69934542
0.14482130 0.80520527 0.37525702
0.84235428 0.67345796 0.70963386
0.17185222 0.34135429 0.37910721
0.99999003 0.99500725 0.02998599
0.65795798 0.33612653 0.38047293
0.50085236 0.00328994 0.04244012
0.49789784 0.49473405 0.03955467
0.99755249 0.51121985 0.03735353
0.33194289 0.67237697 0.70912999
0.34047904 0.17871704 0.71570994
0.68450263 0.84326608 0.38616328
0.81565211 0.15298569 0.70024875
0.14921662 0.82083332 0.36708253
0.84152147 0.66896031 0.71397006
0.18118420 0.36471131 0.37842464
0.99481632 0.98910153 0.03881976
0.65499588 0.33235864 0.37857170
0.51113210 0.00514930 0.04102102
0.49781403 0.48488578 0.04221592
0.99707715 0.50404919 0.03807522
0.33277021 0.67225584 0.70455156
0.34780191 0.19094611 0.71316155
0.68081660 0.84336782 0.38496553
0.81463504 0.15382066 0.70387297
0.15667962 0.83340912 0.36391438
0.83949595 0.66536265 0.71877628
0.18203978 0.36591916 0.37612528
0.99626237 0.99360205 0.04640418
0.66003343 0.33509512 0.37263273
0.51867957 0.00411753 0.04279517
0.48783679 0.47896573 0.03786508
0.00061017 0.49635115 0.04061880
0.33391040 0.66432944 0.70349480
0.34828276 0.18322378 0.70914203
0.67311022 0.84352525 0.38376283
0.82004444 0.15097663 0.70623277
0.16261055 0.82574168 0.37170584
0.83692103 0.66392632 0.72224273
0.17644102 0.34946341 0.37245911
0.00142725 0.00656106 0.04527365
0.66654921 0.33762943 0.37142677
0.51715288 0.01193305 0.04466100
0.47818558 0.48359632 0.02956777
0.00420423 0.49803402 0.03987041
0.33074597 0.65866375 0.70569016
0.34143907 0.16246339 0.70766031
0.66433510 0.84049256 0.37984329
0.81910756 0.14689272 0.70387739
0.16308578 0.80947619 0.37496335
0.83635450 0.66456377 0.72064174
0.17513038 0.33530362 0.37017616
0.99971690 0.00800798 0.03837520
0.66436276 0.33234240 0.37452147
0.50761430 0.01333418 0.04710972
0.47995699 0.49358762 0.03037957
0.00681443 0.51254498 0.03857881
0.32853432 0.66269195 0.70439655
0.33133633 0.15366411 0.70875598
0.66603335 0.83903056 0.37460083
0.81576681 0.15179565 0.70311845
0.15685021 0.80877956 0.37084914
0.84444467 0.66997944 0.71747833
0.18077258 0.33009936 0.37205317
0.99813261 0.99798646 0.03517212
0.65315146 0.32829552 0.37354280
0.50499209 0.01091144 0.04773266
0.48990259 0.49192519 0.03820319
0.00711516 0.52095292 0.03947452
0.32842175 0.66988777 0.70244642
0.32467062 0.16453175 0.71102639
0.67696876 0.84167526 0.37132185
0.81458522 0.15802772 0.70837599
0.15390010 0.82250246 0.36401007
0.84733058 0.67546246 0.70981858
0.18670569 0.33722831 0.37829755
0.99495808 0.99006324 0.04049895
0.65328358 0.32961621 0.36990949
0.51512704 0.00960945 0.04845263
0.49570429 0.49337073 0.04276017
0.00873421 0.51478385 0.04422188
0.33002170 0.66961588 0.70456714
0.32988085 0.17723270 0.71165267
0.67895949 0.84643425 0.37071928
0.81529676 0.15526615 0.71250112
0.15796959 0.83620365 0.36202737
0.84613265 0.67790162 0.70265110
0.18164255 0.34049622 0.38285713
0.99459226 0.99569812 0.04571758
0.66509909 0.33458767 0.36855982
0.52164439 0.00439442 0.05021769
0.49333101 0.49758641 0.04215523
0.01277371 0.50683664 0.04881216
0.32975252 0.66589138 0.70747470
0.34044638 0.17853645 0.70826566
0.66733514 0.84622626 0.37084298
0.82268749 0.15753530 0.70959064
0.15941607 0.83466710 0.36693170
0.84256500 0.67234220 0.70114802
0.16808712 0.32896475 0.38115097
0.99496942 0.00367114 0.04439549
0.67015127 0.34125878 0.37052956
0.51984547 0.00200896 0.04918871
0.48784272 0.49310481 0.03958435
0.01541166 0.50990906 0.04453660
0.32472482 0.66023294 0.70931962
0.34574241 0.17070102 0.70674983
0.66130323 0.83964056 0.37141017
0.83133924 0.16209556 0.70061480
0.15648107 0.81954694 0.37621767
0.83767819 0.66333944 0.70559136
0.17038913 0.32412385 0.37615363
0.99141445 0.99999924 0.03995040
0.66597082 0.34182061 0.37367480
0.51602804 0.00417600 0.04526650
0.48753467 0.49150173 0.04238946
0.01356039 0.52036052 0.03980814
0.32468129 0.65840637 0.70856054
0.34281058 0.16594639 0.70809211
0.66497150 0.83130421 0.37032960
0.83313033 0.16500679 0.69692829
0.15967703 0.82394949 0.37798157
0.83738535 0.66234127 0.70947624
0.18112659 0.32906908 0.37382944
0.99277799 0.99505316 0.03944210
0.66192639 0.33235879 0.37349114
0.51268037 0.00772528 0.04157905
0.49316918 0.49470517 0.04783407
0.00648358 0.52191810 0.03996316
0.33000988 0.66227372 0.70893637
0.33792477 0.17362237 0.70859416
0.66560231 0.82624791 0.36916563
0.83269714 0.17033360 0.70324759
0.16638599 0.83841688 0.37548472
0.83853556 0.66854937 0.70809855
0.17266764 0.33477948 0.37684630
0.99814793 0.99870822 0.04178842
0.66573000 0.32875934 0.37414465
0.51018345 0.00504735 0.03933343
0.49742578 0.49794962 0.04610614
0.00509230 0.50962312 0.04184728
0.33370230 0.66601627 0.71118473
0.33667229 0.17915380 0.70510192
0.66207291 0.82888495 0.37179308
0.82909714 0.17057850 0.71246410
0.17229395 0.84349702 0.37491910
0.83414644 0.66973285 0.70850383
0.15826245 0.33314488 0.37963758
0.00198948 0.00383517 0.04258828
0.67203509 0.33253492 0.37602504
0.50304098 0.99815731 0.04038505
0.49975674 0.49909007 0.04001450
0.00378494 0.49545068 0.04231445
0.33306455 0.66856953 0.71265699
0.33593013 0.16967574 0.70323641
0.66182662 0.83509369 0.37564830
0.82861165 0.16706884 0.71393956
0.17288447 0.83688125 0.37764604
0.83087580 0.66522140 0.71154817
0.15609533 0.32712032 0.37828291
0.00202899 0.00456103 0.03922430
0.67555842 0.33573756 0.37594909
0.49418114 0.99581711 0.04092599
0.50223075 0.49889656 0.03659241
0.99388930 0.49009236 0.04008606
0.32781336 0.66583733 0.71120032
0.33532516 0.15941983 0.70436341
0.66527543 0.83439233 0.37877467
0.83650029 0.16785373 0.70863307
0.16837889 0.83028000 0.37880837
0.83175774 0.66479774 0.71277260
0.16403161 0.32810353 0.37603246
0.00071605 0.99948133 0.03707121
0.67170730 0.33531148 0.37490918
0.49165096 0.99801709 0.03906002
0.50522045 0.50106079 0.03803819
0.98908817 0.49441913 0.03734080
0.33026163 0.66266832 0.70611272
0.33056302 0.15875883 0.70762893
0.67147843 0.83194641 0.38029752
0.84245874 0.17168767 0.70716001
0.16708083 0.83553022 0.37592218
0.83323382 0.66756681 0.71354027
0.16897178 0.33393860 0.37156853
0.00384859 0.99769313 0.04013760
0.66687643 0.33276961 0.37436495
0.49328044 0.00223530 0.03905376
0.50810324 0.50351308 0.04117164
0.99142995 0.49818757 0.03632927
0.34016318 0.66714951 0.70416861
0.32784723 0.16946214 0.71103635
0.67281776 0.83210098 0.38037730
0.83970555 0.17270962 0.71298391
0.17285821 0.84372788 0.37418514
0.82973176 0.66655287 0.71136181
0.16274692 0.33767616 0.37005899
0.00836970 0.00582963 0.04403097
0.67152971 0.33309161 0.37679506
0.49310457 0.00063100 0.03886563
0.50738576 0.50487698 0.04045497
0.99331342 0.49215336 0.03772607
0.34348687 0.66965833 0.70522130
0.33256325 0.17410162 0.71139569
0.66645869 0.83346012 0.38052959
0.83592383 0.16675402 0.71617907
0.17888779 0.84522437 0.37498893
0.82383677 0.66334196 0.70776721
0.15459468 0.33588713 0.37002971
0.00994696 0.01189140 0.04353061
0.67071159 0.33384699 0.37504115
0.49045062 0.99218168 0.03775940
0.50501826 0.50397900 0.03890963
0.99333362 0.48516996 0.04020777
0.34013955 0.67344951 0.70447667
0.33545107 0.16514212 0.71033080
0.66274212 0.83484275 0.37968567
0.83763028 0.16469835 0.71239631
0.17680972 0.83998334 0.37664400
0.82453683 0.66174441 0.70703491
0.15786746 0.33261250 0.36823663
0.00858922 0.00766570 0.03909511
0.66624425 0.33411584 0.37116720
0.48827510 0.99218048 0.03770406
0.50610143 0.50199912 0.03927741
0.99128020 0.48749889 0.04103664
0.33540967 0.67230697 0.70499763
0.33240373 0.15602375 0.70911138
0.66543515 0.83244259 0.37596860
0.84236023 0.17018420 0.70683116
0.17259242 0.83569533 0.37726439
0.82348807 0.66030606 0.70438450
0.17192924 0.33712274 0.36814493
0.00475677 0.99940021 0.03878926
0.66659926 0.33407085 0.37249546
0.48832974 0.99847111 0.03882252
0.50857888 0.50773669 0.04223154
0.99171272 0.49743265 0.04226124
0.33820648 0.66708780 0.70859355
0.32712042 0.15646326 0.70944394
0.67064289 0.82882543 0.36999906
0.84510430 0.17557024 0.70867980
0.17405411 0.84088164 0.37442272
0.82251750 0.66265944 0.70121077
0.17315702 0.34124392 0.37166552
0.00370359 0.99688516 0.04519483
0.66958984 0.33515809 0.37457440
0.48882148 0.99905013 0.04021803
0.50707698 0.51239308 0.04669708
0.99688396 0.50292139 0.04355809
0.34703201 0.67095909 0.71397743
0.32358040 0.16272116 0.70925039
0.66919809 0.82819458 0.36836435
0.84336122 0.17574210 0.71555636
0.17784737 0.84598948 0.37475812
0.82656116 0.66737562 0.70034721
0.15758419 0.33580119 0.37571246
0.00060950 0.99929603 0.04836120
0.67126324 0.33622126 0.37512770
0.48980724 0.99334133 0.04044948
0.50656059 0.50792917 0.04535326
0.00074602 0.49473183 0.04450825
0.34550081 0.67601638 0.71524135
0.32292591 0.16383117 0.70656056
0.66168642 0.82745111 0.37066067
0.84011229 0.17333542 0.71648849
0.17731409 0.84182281 0.37621516
0.82977309 0.66902348 0.70087656
0.15253097 0.32797464 0.37628965
0.99516716 0.99654714 0.04465201
0.66948598 0.33753098 0.37398818
0.49206942 0.98958179 0.04104228
0.50801452 0.50570703 0.04503744
0.00021242 0.48776414 0.04487382
0.33178409 0.67282171 0.70870463
0.32379549 0.15475343 0.70573400
0.66144771 0.82764644 0.37108490
0.84351297 0.17696450 0.70861450
0.16981218 0.83552650 0.37473089
0.83316040 0.66795022 0.70478312
0.15975799 0.32457319 0.37441380
0.99541871 0.99064017 0.04011340
0.66734107 0.33865347 0.37230110
0.49926718 0.99773382 0.04066315
0.50973327 0.50880925 0.04658839
0.99594214 0.49482682 0.04163386
0.32363138 0.66452634 0.70641232
0.32863138 0.15195717 0.70575768
0.66428144 0.82752198 0.36952254
0.85068183 0.18330881 0.69966773
0.16282940 0.83045974 0.37414654
0.83131273 0.66494688 0.70834107
0.16775932 0.32824081 0.37380033
0.99832739 0.98907451 0.04243135
0.66589125 0.33721232 0.37603381
0.51009006 0.00867919 0.04050107
0.50902440 0.51351401 0.04674317
0.99896048 0.50360751 0.03942388
0.33316788 0.65727758 0.70831576
0.33066253 0.16233209 0.71048699
0.66679122 0.82920224 0.36855220
0.85200928 0.17968808 0.69996934
0.16419934 0.83135138 0.37540137
0.83009596 0.66372253 0.70993381
0.16546584 0.32968915 0.37419894
0.99906019 0.99807543 0.04539589
0.66570627 0.33533917 0.37702694
0.51570522 0.01226324 0.03816843
0.50325335 0.51067054 0.04417926
0.01047524 0.50641106 0.04312543
0.33864293 0.65885872 0.71119552
0.33551740 0.18110642 0.71250147
0.66474291 0.83632830 0.37305883
0.83779913 0.17038414 0.70661790
0.17225226 0.83667571 0.37876076
0.83719301 0.66670911 0.70756869
0.15295144 0.32194177 0.37678675
0.99602292 0.01059796 0.04041582
0.66644139 0.33030206 0.37194397
0.51928655 0.00725287 0.03420089
0.49558837 0.49815343 0.03781602
0.01352520 0.50222587 0.04792066
0.32758039 0.66829973 0.70944073
0.34226446 0.18869646 0.70616543
0.65815302 0.84043332 0.38012042
0.82009633 0.16636171 0.70998085
0.17361181 0.83768102 0.37896850
0.84389385 0.67506816 0.70542613
0.15078913 0.31512222 0.37850360
0.99045975 0.00188449 0.03769186
0.66278244 0.32605743 0.37011202
0.51979919 0.99920615 0.03825328
0.49248495 0.48742623 0.03344579
0.00855613 0.50264350 0.04921869
0.31912672 0.67399438 0.70587600
0.34155899 0.17632186 0.70095867
0.65809131 0.83876384 0.38108001
0.81776912 0.16847209 0.70846437
0.16279763 0.83053274 0.37246705
0.84315858 0.67899197 0.70981654
0.16720773 0.31901758 0.37591469
0.99195578 0.98628162 0.03819769
0.66187790 0.32433063 0.37385572
0.51570164 0.00391651 0.04946603
0.49395167 0.48502621 0.03385035
0.00569799 0.51326415 0.04489050
0.32473142 0.66740175 0.70963511
0.33903035 0.16504409 0.70594219
0.66553882 0.84132624 0.38165407
0.82199802 0.16375902 0.70397548
0.15246938 0.82029321 0.36770574
0.83650099 0.67587707 0.71462719
0.18049820 0.32756323 0.36928309
0.99722936 0.99267853 0.03798312
0.66312012 0.32341518 0.37905685
0.51453832 0.01583964 0.05250577
0.49388565 0.48936239 0.03494527
0.00659896 0.52134678 0.04141532
0.33915544 0.66281412 0.71078479
0.34303009 0.17599549 0.71476311
0.67369784 0.84737361 0.38184367
0.82962485 0.15392176 0.70467246
0.15095704 0.81408493 0.36887858
0.83533396 0.67475157 0.71638018
0.17813515 0.33410036 0.36635321
0.00159189 0.01045134 0.04053124
0.65654325 0.32604846 0.37724464
0.51645085 0.01902835 0.04516714
0.48567290 0.48721143 0.03807591
0.00876445 0.51807615 0.04325524
0.34443647 0.66696585 0.70143234
0.34847199 0.18998040 0.71695220
0.67351893 0.85136780 0.38282452
0.82335334 0.14600820 0.71069406
0.15634129 0.81761180 0.37294492
0.84793328 0.67634736 0.71965970
0.16951404 0.33816720 0.37562038
0.00176353 0.01158990 0.04281959
0.65306497 0.32854754 0.37060391
0.51755549 0.01163473 0.04098393
0.48117093 0.47844537 0.03734007
0.00491978 0.50638118 0.04463622
0.33510582 0.67081456 0.69466904
0.34964716 0.19261729 0.70850558
0.66435383 0.84169987 0.38245345
0.81381572 0.14570616 0.71090218
0.15621568 0.82142096 0.37406399
0.85990628 0.67358179 0.71857397
0.18009215 0.33895013 0.38421386
0.99778776 0.99366393 0.04419372
0.65756946 0.33254152 0.36861227
0.51290019 0.00468508 0.04681479
0.48576873 0.47659111 0.03420815
0.99948719 0.49981274 0.04441979
0.31989921 0.66106511 0.69578801
0.34317101 0.18060669 0.70840567
0.66013961 0.83119494 0.37821506
0.81861762 0.14945912 0.70237231
0.14376932 0.81467780 0.36702186
0.86157338 0.66958160 0.71387725
0.19710855 0.34417246 0.38546568
0.99731666 0.98385395 0.04103182
0.66268839 0.34286914 0.36955323
0.50533868 0.00463067 0.05043933
0.48764954 0.48240846 0.03147277
0.00138761 0.50404334 0.04463584
0.31595082 0.65168147 0.70184152
0.33543502 0.16810194 0.71504346
0.66621378 0.83981789 0.37234265
0.82986936 0.15315107 0.69388289
0.13658881 0.80872744 0.36379545
0.85126012 0.66519991 0.70842066
0.19979155 0.35267498 0.38116841
0.99982636 0.99594324 0.03341002
0.65918836 0.34129006 0.37101741
0.50899692 0.01485443 0.04479681
0.48305200 0.48943488 0.03366343
0.00603753 0.50678535 0.04909370
0.32993687 0.66487341 0.70536854
0.33502642 0.16851301 0.71895050
0.67262605 0.84667098 0.37272046
0.83244928 0.15283173 0.69156786
0.14085495 0.81719829 0.36697252
0.84702714 0.66588872 0.70693864
0.20037889 0.36270988 0.37695482
0.99423913 0.01244515 0.03126324
0.65481409 0.32950220 0.37439798
0.51368310 0.01329527 0.04462581
0.47952360 0.49367447 0.04216476
0.00732644 0.50762223 0.05372856
0.34453655 0.68354579 0.70659842
0.34149602 0.17814820 0.71508099
0.67968300 0.85018002 0.37472385
0.82067171 0.15003154 0.69868042
0.14648614 0.82663514 0.37039872
0.85665267 0.66815932 0.70914867
0.19860711 0.36812734 0.38049348
0.98419618 0.00803405 0.03457543
0.65128655 0.31922225 0.37519183
0.50897337 0.99865568 0.04761982
0.47962098 0.49470360 0.04626333
0.00159546 0.50534830 0.05140636
0.34224881 0.68314124 0.71245866
0.34448405 0.18044100 0.70822571
0.68423758 0.85499466 0.37532598
0.81117970 0.15062240 0.70569147
0.14683465 0.82649565 0.37368840
0.86089684 0.66511906 0.70767428
0.19385310 0.35781544 0.38139939
0.98428942 0.99162273 0.03801224
0.65292284 0.31629528 0.37092975
0.50189293 0.98866168 0.04741127
0.48133234 0.49570988 0.04332998
0.00011031 0.50309475 0.04361857
0.32980772 0.67149187 0.71490445
0.33692359 0.16576907 0.70519780
0.68016244 0.85010558 0.37363502
0.81534410 0.15517727 0.70595593
0.14275354 0.82062543 0.37377026
0.84990177 0.66150441 0.70502074
0.19044395 0.34017878 0.37470127
0.99226889 0.98381618 0.04308776
0.66133773 0.32009740 0.36986007
0.50094299 0.99470493 0.04494976
0.49337099 0.50435063 0.04146673
0.00477138 0.50886543 0.03708721
0.32303345 0.66385059 0.70520304
0.33143102 0.15637323 0.70728504
0.67671500 0.84387548 0.37057737
0.82819719 0.16195632 0.70514984
0.14202933 0.82025833 0.37287746
0.83846720 0.66382407 0.71053514
0.18329780 0.33072303 0.37241581
0.99189637 0.98994413 0.04742394
0.66360264 0.32488797 0.37544659
0.50683012 0.00782987 0.04414519
0.50470741 0.51082867 0.04087905
0.00558311 0.51033158 0.03597386
0.33001686 0.66319578 0.69873855
0.33451504 0.16163149 0.70734721
0.67649672 0.84324750 0.37115403
0.83783996 0.16662509 0.70718855
0.15312561 0.82903119 0.37450632
0.83625813 0.66830266 0.71566967
0.17255199 0.33087935 0.37767552
0.99031965 0.00141859 0.04710986
0.66554715 0.33097525 0.38192850
0.51087052 0.00684421 0.04241784
0.50288525 0.50779972 0.04184010
0.00052814 0.50596355 0.03892062
0.33721411 0.66457642 0.70394800
0.33448959 0.16680125 0.70569001
0.67433590 0.83967320 0.37519737
0.83587237 0.16603297 0.71218120
0.16813072 0.83895038 0.37516611
0.83718710 0.67308970 0.71164461
0.16471006 0.33437566 0.38210788
0.99282075 0.00233431 0.04200307
0.67178338 0.34096516 0.37930163
0.50816032 0.99392437 0.04140424
0.49741175 0.50240929 0.04257459
0.99984783 0.50398050 0.04172515
0.33391913 0.66311730 0.71207933
0.33011690 0.16754629 0.70512459
0.66926337 0.82896023 0.37741045
0.82894204 0.16843925 0.71124791
0.17569331 0.84300187 0.37250770
0.83411110 0.67232411 0.70439425
0.16313157 0.33540078 0.37953524
0.99803473 0.99635281 0.03655259
0.67343571 0.34336338 0.37270975
0.50304190 0.99260159 0.04276584
0.49911692 0.49857669 0.04121907
0.00178437 0.50329717 0.04324412
0.32540713 0.65778080 0.71346298
0.32720609 0.16300331 0.70638989
0.66377436 0.82250017 0.37443887
0.82859849 0.17323083 0.70659027
0.17525591 0.83998971 0.37029992
0.82753322 0.66764185 0.70319108
0.16778917 0.33357398 0.37409200
0.00446414 0.99544874 0.03611664
0.66938796 0.34061121 0.37327153
0.50073946 0.00031684 0.04122229
0.50642098 0.50055722 0.04103849
0.00263246 0.50368187 0.04427403
0.32601747 0.65901014 0.70790418
0.33071443 0.16227691 0.70891388
0.65900533 0.82326626 0.37186063
0.83751620 0.17373251 0.70614478
0.16927288 0.83142031 0.37048818
0.82052618 0.66637290 0.70909050
0.16643296 0.32783749 0.37076053
0.00823062 0.00350095 0.04232267
0.66812425 0.34067281 0.37909615
0.50470464 0.00676708 0.03786216
0.51187809 0.50505195 0.04219873
0.00348193 0.50193872 0.04372018
0.33427600 0.66552305 0.70376097
0.33549920 0.16734758 0.71101171
0.65701369 0.82404480 0.37716475
0.84298795 0.17086604 0.70873643
0.16984597 0.83127010 0.37306828
0.82229105 0.66771116 0.71270968
0.15564324 0.32474263 0.37152389
0.01115491 0.01547559 0.04449686
0.67102205 0.33846520 0.38139799
0.50355398 0.00563950 0.03673780
0.50811792 0.50398917 0.04401214
0.00225505 0.49837088 0.04178596
0.33736980 0.66791086 0.70542738
0.33404751 0.16908409 0.71015205
0.66007879 0.82245705 0.38182580
0.83971981 0.16925187 0.71027794
0.17636097 0.84002079 0.37489580
0.82931736 0.66930082 0.70925134
0.15036021 0.32940306 0.37461190
0.01106107 0.01064846 0.04323461
0.66983239 0.33228516 0.37555624
0.49200445 0.99778384 0.03641166
0.50274709 0.50076101 0.04577457
0.99939640 0.49830304 0.04172428
0.33541116 0.66658009 0.70752213
0.32803761 0.16389982 0.70815163
0.66368401 0.82286572 0.38050658
0.83592190 0.17305019 0.71112527
0.17789410 0.84256543 0.37678035
0.82972731 0.66739138 0.70370295
0.15433153 0.33245614 0.37473560
0.00915935 0.99729194 0.04315228
0.66871396 0.33070328 0.37097485
0.48555222 0.99517441 0.03859703
0.50645667 0.49921212 0.04156525
0.99764835 0.49737587 0.04098215
0.33146828 0.66293368 0.70698417
0.32441079 0.15650980 0.70692258
0.66436841 0.82821931 0.37472595
0.83720564 0.17474607 0.71012171
0.17435836 0.83723029 0.37812711
0.82534504 0.66541326 0.70368529
0.15862263 0.32676382 0.37054290
0.00717613 0.99509056 0.04494339
0.67292257 0.33552256 0.37586742
0.49075458 0.00118516 0.04049550
0.51355472 0.50301741 0.03898980
0.99791073 0.49612880 0.03911475
0.33227710 0.66569333 0.70646131
0.32571323 0.15799390 0.70857490
0.66451443 0.83158290 0.36995248
0.84555063 0.17330424 0.70971279
0.17337594 0.83486762 0.37812308
0.82294736 0.66784123 0.70798999
0.15720278 0.32296243 0.36987407
0.00381567 0.00403361 0.04435245
0.67419775 0.33881275 0.38142914
0.49895238 0.00512123 0.03788807
0.51282685 0.50734296 0.04232213
0.99783574 0.49609381 0.03767046
0.34064026 0.67540533 0.70809784
0.33233471 0.16565463 0.71001276
0.66496226 0.83378722 0.37032524
0.85211828 0.17340717 0.71113510
0.17691582 0.84026501 0.37794932
0.82588091 0.66930891 0.70798802
0.15366239 0.32828860 0.37388015
0.00203131 0.00777311 0.04151693
0.66898790 0.33499472 0.37846058
0.50031414 0.00249445 0.03618473
0.50541421 0.50517629 0.04541696
0.99465629 0.49238965 0.03832607
0.34317779 0.67791554 0.71085701
0.33466930 0.16603454 0.70739465
0.66399690 0.83198304 0.37313996
0.84321546 0.17078067 0.71039690
0.18050620 0.84571182 0.37715279
0.83153998 0.66687257 0.70326353
0.15797271 0.33626978 0.37516612
0.99978668 0.00010598 0.03995598
0.66592512 0.33126050 0.37166263
0.49100554 0.99216381 0.03983583
0.50247548 0.50269935 0.04469620
0.99309851 0.49014516 0.03995634
0.33683079 0.67262486 0.71299842
0.33368394 0.16453814 0.70520478
0.66481037 0.82937673 0.37333731
0.83575112 0.16989016 0.70857355
0.17698960 0.84143247 0.37589660
0.83231692 0.65965925 0.70178553
0.16873143 0.34076749 0.37118758
0.99408401 0.99482071 0.04231972
0.66739775 0.33387491 0.37183523
0.48593579 0.98888598 0.04255365
0.50635373 0.50283518 0.04136697
0.99519474 0.49345060 0.04013814
0.33486927 0.66974918 0.71205033
0.33398607 0.16415440 0.70687251
0.66647269 0.83454447 0.37189705
0.83978363 0.17046744 0.70848848
0.17029508 0.83339216 0.37501843
0.82761241 0.65639434 0.70700848
0.17575948 0.33926983 0.36793346
0.99443238 0.00187601 0.04620301
0.66565453 0.33703785 0.37834225
0.49172762 0.99584073 0.04232891
0.50837672 0.50320432 0.03955986
0.00105790 0.49677585 0.04065255
0.34037266 0.67495150 0.70908592
0.33593936 0.16543047 0.70984706
0.66447397 0.83951015 0.37383109
0.84486677 0.16822479 0.71089570
0.16226144 0.82898641 0.37422303
0.82582173 0.66130687 0.71316971
0.17476584 0.33428983 0.37173096
0.99843109 0.00707427 0.04428232
0.66193781 0.33725856 0.38074581
0.49583364 0.99715037 0.04117620
0.50645585 0.50625434 0.04145599
0.00617517 0.49892672 0.04193722
0.34336196 0.67686830 0.70860318
0.34054534 0.17094330 0.70913297
0.66450871 0.83847041 0.37597659
0.84361407 0.17001327 0.71226729
0.15890481 0.83093216 0.37395043
0.83417315 0.66481156 0.71133442
0.16973288 0.33335662 0.37899771
0.99613006 0.00096887 0.03849232
0.66140849 0.33434627 0.37569012
0.49407599 0.99308294 0.04192546
0.49972513 0.50463577 0.04408752
0.00088331 0.49839225 0.04264582
0.33821545 0.66894525 0.71010599
0.34138560 0.17303002 0.70379494
0.67141854 0.83804056 0.37337669
0.83317334 0.16922889 0.70938353
0.16375245 0.83433175 0.37227530
0.84239072 0.66268746 0.70248995
0.17019489 0.33767815 0.38069407
0.99427726 0.99010486 0.03847005
0.66327704 0.33362420 0.37032516
0.49001195 0.98875641 0.04461901
0.49397197 0.49790732 0.04408282
0.99359863 0.49898668 0.04369043
0.33036710 0.66109206 0.71260109
0.33545193 0.16895380 0.70199575
0.67604316 0.84042925 0.37182054
0.82219882 0.16232260 0.70642532
0.16389510 0.82860522 0.37127698
0.84068140 0.66007428 0.69915409
0.17445669 0.33705440 0.37658234
0.99718043 0.98846993 0.04136197
0.66892873 0.34110836 0.37368036
0.49442723 0.99258689 0.04658736
0.49748673 0.49515447 0.03985979
0.99709333 0.50149418 0.04202450
0.32685612 0.65975074 0.71189236
0.32882411 0.16605526 0.70685638
0.67393480 0.84427900 0.37261540
0.82169687 0.15816564 0.70402283
0.15823068 0.81887848 0.37230530
0.83603526 0.66350934 0.70983358
0.17267524 0.32865377 0.37303392
0.00060732 0.00052160 0.03989516
0.67268313 0.34186139 0.38123125
0.51023679 0.00831976 0.04695454
0.49821489 0.49566567 0.03826829
0.00751010 0.50568087 0.04002947
0.32923363 0.66267969 0.70470885
0.33004689 0.17053288 0.71176658
0.67088082 0.84359112 0.37593269
0.82991997 0.16013690 0.70291957
0.15608959 0.81817999 0.37195635
0.83965572 0.67520612 0.72176361
0.16866096 0.32698354 0.37720043
0.00188842 0.01206359 0.03395716
0.66548004 0.33115253 0.38073167
0.52399719 0.01765715 0.04453189
0.48952276 0.49822658 0.04279524
0.01500230 0.51678271 0.04034518
0.33103348 0.66929477 0.69985754
0.33929938 0.17865415 0.71303151
0.66947959 0.83702640 0.37951539
0.83475165 0.16432317 0.70326885
0.15380624 0.81942562 0.37207319
0.84810409 0.68006006 0.72031940
0.16781081 0.33536341 0.38230813
0.00304981 0.00795792 0.03350539
0.65804801 0.32350595 0.37125922
0.52558433 0.01538416 0.03977401
0.48539835 0.49406836 0.04175375
0.01109707 0.52199830 0.04194494
0.32422513 0.66731919 0.70135011
0.34076669 0.17739956 0.71200539
0.66777676 0.83373816 0.38174554
0.82112317 0.15459943 0.70256038
0.15497298 0.82036538 0.37239559
0.85178448 0.67661520 0.71378319
0.17274384 0.34064049 0.37722263
0.00623365 0.99924785 0.03778347
0.66106886 0.32697072 0.36353204
0.51492775 0.00514868 0.04082296
0.48803484 0.48281441 0.03212788
0.00381746 0.51429192 0.04199230
0.32084757 0.66475267 0.70453565
0.32716328 0.17021113 0.71448575
0.67081568 0.83927739 0.38204927
0.80049593 0.13597223 0.70142129
0.15737734 0.82181355 0.37411800
0.84758612 0.67733209 0.71318612
0.18135222 0.33831516 0.37084781
0.00456522 0.99139211 0.03742184
0.66602182 0.33701510 0.36754395
0.50667956 0.99677119 0.04287758
0.49065395 0.48305605 0.02644870
0.00377830 0.50790916 0.04176570
0.32979270 0.67407604 0.70247479
0.31729936 0.16868123 0.72067006
0.67597670 0.84805193 0.38167013
0.80279295 0.13564803 0.70577401
0.15241033 0.82027071 0.37715291
0.83842013 0.67861501 0.72047842
0.18157318 0.32748994 0.36839260
0.99986056 0.99355538 0.03164953
0.66450791 0.33687073 0.37287445
0.51699946 0.00278129 0.04552770
0.48850317 0.48948853 0.02698018
0.01222190 0.51071833 0.04372931
0.33263458 0.67220676 0.69785284
0.32816716 0.17481850 0.72450789
0.67576812 0.85124999 0.38062520
0.81259138 0.14824626 0.71166693
0.14583433 0.81732051 0.37664695
0.83933804 0.68167740 0.72145698
0.17526416 0.31882440 0.37450022
0.99934128 0.00067819 0.02766962
0.66096939 0.32377228 0.36935079
0.53188358 0.01514721 0.04419923
0.48218434 0.49300919 0.03513160
0.02394799 0.51905655 0.04895124
0.32683955 0.65878231 0.69951413
0.34726899 0.18205415 0.72210797
0.66954468 0.84394626 0.37807280
0.81559185 0.15842392 0.71106947
0.14396648 0.81472941 0.37340315
0.84946504 0.68118516 0.71304438
0.16967767 0.32479546 0.38291939
0.00542445 0.00186183 0.03292006
0.66948558 0.31968431 0.36415587
0.53262578 0.01418257 0.03868136
0.48164108 0.49235989 0.04410944
0.02053019 0.51799709 0.05166225
0.31837928 0.65431499 0.70966022
0.35511752 0.18660217 0.71169825
0.66505947 0.83957591 0.37096034
0.81478998 0.16376562 0.70657743
0.15906010 0.82602416 0.37213495
0.85132319 0.66650460 0.70483360
0.17314509 0.34258613 0.38146117
0.00976432 0.00094151 0.04409048
0.67559838 0.32300346 0.36223208
0.52354522 0.00290972 0.04094363
0.49052187 0.49066718 0.04288550
0.00407696 0.50200590 0.05025071
0.31795903 0.66080256 0.71738792
0.33842531 0.18242373 0.69604238
0.66799470 0.83838150 0.36591985
0.81401361 0.16589310 0.70598779
0.17032465 0.83901529 0.37102983
0.84505603 0.65856461 0.70464229
0.18266575 0.34488024 0.37697084
0.01107981 0.00395811 0.05004968
0.66998489 0.32664533 0.36575116
0.50704644 0.98908811 0.04665392
0.50044695 0.49601927 0.03393105
0.00090810 0.48999070 0.04266734
0.32812206 0.67115555 0.71585554
0.33041501 0.17744171 0.69192626
0.67541671 0.83962164 0.36183600
0.82427003 0.17638096 0.71170157
0.16599696 0.83827771 0.37073451
0.84118399 0.66185210 0.71052096
0.18278043 0.33472034 0.37633210
0.00473272 0.00302608 0.04526870
0.66261018 0.32801167 0.37472190
0.49692815 0.98982103 0.04743708
0.49570081 0.49897707 0.03532808
0.00561449 0.49434153 0.04296827
0.33182877 0.66889713 0.71172255
0.34207684 0.17608729 0.69886944
0.67526206 0.83595697 0.36265546
0.83837982 0.18637731 0.71681641
0.15732961 0.83581927 0.36887051
0.83919930 0.66949005 0.71061703
0.17080092 0.32982651 0.38615208
0.99420783 0.99714400 0.03879665
0.65323943 0.32361616 0.38036830
0.49843272 0.00685765 0.03902215
0.48866010 0.49765371 0.04375758
0.00445703 0.50398324 0.04554559
0.32841925 0.66229277 0.71166078
0.34958492 0.16680852 0.70485346
0.66076304 0.82596523 0.36790704
0.84228030 0.17973014 0.71389419
0.15743294 0.83723745 0.36828412
0.84272315 0.67296812 0.70445681
0.16904136 0.33226993 0.38789708
0.99030519 0.99265947 0.04207865
0.65520233 0.32731356 0.37689334
0.49613257 0.01039568 0.03636061
0.49888328 0.50715252 0.04815849
0.99898608 0.50720596 0.04452406
0.32958747 0.66715737 0.71391507
0.34341676 0.16080509 0.70703023
0.65226827 0.82603066 0.37363678
0.83894292 0.16730593 0.70818882
0.16610850 0.84376907 0.37297812
0.84310793 0.66940834 0.69874566
0.17395753 0.33244339 0.37825309
0.99048990 0.99300825 0.04798942
0.66548644 0.33502143 0.37388571
0.48986134 0.99738109 0.04279414
0.51337320 0.51390181 0.04435256
0.99291631 0.49498811 0.03903311
0.34169450 0.67895981 0.70924370
0.32895221 0.16216359 0.70847316
0.66428462 0.83748000 0.37847154
0.83387581 0.15790809 0.70551066
0.17543421 0.85260569 0.37915981
0.83535375 0.66814397 0.70255881
0.17133683 0.33125510 0.36820509
0.98842905 0.99330328 0.04750653
0.67138258 0.33954543 0.37775054
0.48883598 0.98658473 0.04372666
0.51319286 0.50790325 0.04074222
0.99171406 0.48517578 0.03584789
0.34924720 0.68018857 0.70037201
0.32360236 0.15784581 0.70464089
0.67100779 0.83833302 0.38037399
0.83174248 0.15858871 0.70682202
0.17425040 0.84761800 0.37802987
0.82999841 0.67275913 0.71268535
0.16136932 0.33221129 0.36438065
0.98869043 0.99488910 0.04083568
0.67130060 0.34020545 0.38391505
0.49230477 0.98797674 0.03954144
0.50678061 0.50409365 0.04148467
0.99883746 0.49126536 0.03873872
0.34200191 0.66903182 0.69580063
0.33038245 0.16109608 0.70544002
0.66388479 0.82877214 0.37921697
0.83667944 0.16982634 0.70951421
0.16997520 0.83866369 0.37774117
0.82660046 0.67035193 0.71381237
0.15525565 0.33440152 0.36783535
0.99578131 0.99880495 0.03544126
0.66960304 0.33982560 0.38487978
0.49634699 0.00063532 0.03706388
0.50079353 0.50222682 0.04492114
0.99851938 0.49551607 0.04200502
0.33866726 0.65796014 0.69967650
0.33692982 0.16524796 0.70949656
0.65411673 0.82243556 0.37620475
0.84533004 0.17533788 0.71140009
0.17514221 0.83634028 0.38076653
0.82523874 0.66353625 0.70623413
0.15991201 0.33967577 0.37248710
0.00597195 0.00177669 0.03924881
0.67262340 0.34143852 0.37705432
0.49303415 0.00279097 0.03714934
0.50335059 0.50635891 0.04902706
0.99449208 0.49789247 0.04068784
0.34389506 0.66108225 0.70725408
0.33419473 0.16179396 0.70853984
0.65330091 0.82407669 0.37261206
0.85115356 0.17214435 0.71198100
0.18397530 0.83694776 0.38357696
0.82471775 0.65967638 0.69970947
0.16008560 0.34107827 0.37097323
0.01435001 0.00623363 0.04769398
0.67662590 0.33948241 0.37140442
0.48743868 0.99575531 0.03910833
0.50761360 0.50849084 0.04459024
0.99312502 0.49896765 0.03577062
0.34521798 0.66951797 0.71011074
0.32805971 0.15928821 0.70782020
0.66224007 0.82666148 0.36980202
0.84809607 0.17164830 0.71126757
0.18535032 0.83765860 0.38349852
0.82056597 0.65859462 0.70222938
0.15912184 0.33910015 0.36889033
0.01658628 0.01062268 0.05009324
0.67356098 0.33685820 0.37561258
0.48513393 0.99552998 0.03873740
0.50900046 0.50092347 0.03445974
0.99287866 0.49551724 0.03348534
0.33962019 0.66943340 0.70860226
0.32232635 0.15503100 0.70916359
0.66735730 0.82817576 0.36847986
0.84021354 0.17534621 0.70843175
0.18082028 0.83776937 0.37844814
0.81874033 0.66288178 0.70991935
0.15957987 0.33710112 0.37223995
0.00993074 0.00670214 0.04331627
0.67036791 0.33627398 0.37969456
0.48935276 0.00239090 0.03606788
0.50919836 0.50066967 0.03656103
0.99839075 0.50042142 0.03893174
0.33506844 0.66952567 0.70930135
0.32427247 0.15618408 0.71204308
0.66393643 0.82757720 0.36974611
0.84206953 0.17943991 0.70978399
0.17242940 0.83499654 0.37325166
0.81985827 0.66268873 0.71265332
0.15772517 0.33218460 0.37726353
0.00637706 0.00675799 0.04051382
0.66925965 0.33648682 0.37607446
0.49942481 0.01274566 0.03632570
0.50842353 0.50417820 0.04495797
0.99976058 0.50499111 0.04214512
0.33387751 0.66819100 0.71297274
0.32956588 0.15875902 0.71160221
0.65951600 0.82729773 0.37295295
0.84450688 0.17269938 0.70992296
0.16641904 0.83094560 0.37386824
0.82478446 0.66377236 0.70663254
0.15896008 0.32456772 0.37750405
0.00538363 0.00467566 0.04475782
0.67052635 0.33588199 0.37083115
0.50396644 0.01258297 0.03952542
0.51067092 0.50508179 0.04713146
0.99701803 0.50298689 0.04007354
0.33715278 0.67090420 0.71567573
0.33047559 0.16113755 0.70772378
0.66235515 0.83145330 0.37696262
0.83845200 0.16334592 0.70709400
0.16741745 0.83366749 0.37488401
0.82961616 0.66775345 0.70123061
0.16037382 0.32119810 0.37414830
0.00111102 0.00032837 0.04579482
0.67288920 0.33240422 0.37160694
0.50143811 0.00272169 0.04135685
0.51286974 0.50505992 0.04286371
0.99802933 0.49491656 0.03824363
0.33793899 0.67571438 0.71344913
0.32846353 0.16736994 0.70346005
0.66982629 0.83558708 0.37851544
0.82919537 0.16270745 0.70737465
0.17254128 0.84316252 0.37248164
0.82899838 0.66685555 0.70480063
0.16198193 0.32478729 0.37282387
0.99723524 0.00002280 0.04128542
0.67012896 0.32996822 0.37737333
0.50183806 0.99758956 0.04071170
0.50703693 0.50174719 0.03821156
0.00075195 0.49208421 0.04018089
0.33050314 0.67109035 0.70764048
0.32746289 0.17010985 0.70238950
0.67005266 0.83370042 0.37577228
0.82595480 0.16606383 0.70981219
0.17224290 0.84269545 0.37008489
0.83044998 0.66915738 0.71013402
0.16421454 0.33103732 0.37622951
0.99597673 0.99837581 0.03669387
0.66578880 0.33129080 0.38105386
0.50443472 0.99695867 0.03803343
0.49885958 0.50226726 0.04160565
0.00277218 0.50087126 0.04609065
0.32615082 0.66483984 0.70744095
0.33215818 0.17250250 0.70410246
0.66807812 0.83235036 0.37168725
0.83202978 0.17002875 0.71114840
0.16747847 0.83341791 0.36949198
0.83492059 0.67118258 0.70845137
0.16751770 0.33255878 0.37883425
0.99857401 0.00167691 0.03825990
0.66603790 0.33299084 0.37801687
0.50624442 0.99940866 0.03885542
0.49498910 0.50147510 0.04752242
0.00328607 0.50411834 0.04863206
0.32811436 0.66275045 0.71221407
0.34240945 0.17596143 0.70332342
0.66779552 0.83316157 0.37202156
0.83538196 0.16844733 0.70849701
0.16614804 0.82915969 0.37282333
0.83717535 0.66843265 0.70341228
0.17295187 0.33172118 0.37747630
0.00304681 0.00518431 0.04399087
0.66581194 0.33312189 0.37463661
0.50329211 0.99725450 0.04254922
0.49900022 0.50217523 0.04386488
0.00363710 0.49966115 0.04253589
0.33286014 0.66785931 0.71169720
0.34502883 0.17299083 0.70205583
0.66969027 0.83604340 0.37465784
0.82965803 0.16089920 0.70329550
0.16911455 0.83329452 0.37692143
0.83967959 0.66752015 0.70578351
0.17557514 0.33344430 0.37331572
0.00196308 0.00103405 0.04608347
0.66385169 0.33219049 0.37551955
0.49853249 0.98978940 0.04687708
0.50140456 0.50446558 0.03428919
0.00369459 0.49915432 0.03597645
0.33189099 0.67111052 0.70628793
0.33882709 0.17196058 0.70647887
0.67185663 0.83997526 0.37540263
0.82343479 0.16011744 0.70364614
0.16803727 0.83634599 0.37669004
0.83982744 0.66691861 0.71533108
0.17685470 0.34027501 0.37055601
0.99487804 0.99533750 0.04218751
0.66161418 0.33263514 0.37939976
0.49798900 0.99069180 0.04934539
0.49483475 0.49703889 0.03111788
0.00121826 0.49977544 0.03689053
0.32659225 0.66489551 0.70217415
0.33229885 0.17134208 0.71173979
0.67129581 0.84050923 0.37540738
0.82313501 0.16441669 0.70888561
0.16243528 0.83194786 0.37392293
0.83893533 0.66670442 0.72272618
0.17891324 0.34823733 0.37369653
0.99106904 0.99283061 0.03781214
0.66062652 0.33813524 0.37990852
0.50187995 0.99969146 0.04426602
0.48743042 0.48794538 0.03788936
0.00266433 0.50509004 0.04366260
0.32676069 0.66248136 0.70283795
0.33500417 0.16833337 0.71366567
0.66845969 0.83810389 0.37602629
0.83114509 0.16526957 0.71023591
0.15576917 0.82374667 0.37325691
0.84081244 0.66745737 0.71992676
0.17773338 0.34488474 0.37797262
0.99480181 0.99735631 0.04076131
0.66279298 0.34034912 0.37173691
0.50991253 0.00977159 0.04068688
0.48427814 0.48674204 0.04395884
0.00557935 0.50692260 0.04832386
0.33291815 0.66578164 0.70550091
0.34608281 0.17114095 0.71352945
0.66381008 0.83389110 0.38047912
0.83352824 0.16052508 0.70572862
0.15476045 0.82127655 0.37558383
0.84760486 0.67111854 0.71055323
0.17695497 0.33631438 0.37794907
0.99362524 0.99869556 0.04339417
0.66239242 0.33047131 0.36473807
0.51029364 0.00977651 0.04395761
0.48678807 0.49112537 0.03922937
0.00317434 0.49916984 0.04613881
0.33841951 0.66785993 0.70341507
0.34662942 0.17413937 0.71524244
0.66578532 0.83664227 0.38356237
0.82331411 0.15280772 0.70210405
0.15545647 0.82594547 0.37594277
0.85526527 0.67927042 0.70687428
0.17726299 0.33551199 0.37683826
0.98529303 0.99083820 0.03644550
0.66140767 0.32378380 0.36396882
0.49980595 0.00086665 0.04552168
0.49335928 0.49641337 0.03240197
0.99866307 0.49664161 0.04270156
0.33491266 0.66649827 0.69933396
0.33518728 0.17331102 0.72195553
0.67447459 0.84850955 0.37907164
0.81857368 0.15342833 0.70692303
0.15476023 0.83006274 0.37300974
0.84901016 0.67733960 0.71169820
0.17579686 0.34393741 0.37534995
0.98579265 0.99019212 0.02692602
0.66370705 0.32996559 0.36655113
0.50205781 0.00492884 0.04276759
0.49096719 0.49222610 0.03434460
0.99800307 0.50298558 0.04397862
0.32941170 0.66067556 0.69941639
0.33256335 0.16822389 0.72311444
0.67734928 0.84831342 0.37607071
0.82340011 0.15940956 0.71254612
0.15412544 0.82888078 0.37049977
0.83587354 0.66680384 0.71352538
0.17696827 0.34967431 0.37797504
0.99554845 0.99179835 0.02649127
0.66365925 0.33943869 0.37074468
0.51095702 0.01344526 0.03753262
0.48878675 0.48722245 0.04621726
0.00268701 0.51083133 0.04677805
0.33614263 0.66110604 0.70772219
0.34141733 0.16451564 0.71138367
0.67717867 0.84378046 0.37645046
0.83287252 0.16549130 0.70772187
0.15338067 0.82668841 0.37128639
0.83233659 0.66529117 0.70507934
0.17771640 0.34300039 0.38201748
0.00108382 0.99359959 0.03606741
0.66277939 0.33469780 0.37007738
0.51366413 0.00747778 0.03683388
0.49700921 0.49769423 0.05434039
0.00584363 0.51001008 0.04666234
0.34617662 0.66935428 0.71607292
0.35184609 0.17004166 0.69873151
0.67215950 0.84486080 0.37985090
0.83684294 0.16553605 0.69760511
0.15427623 0.82720637 0.37534204
0.83757127 0.66965227 0.69911059
0.17326983 0.33320330 0.37884496
0.99924319 0.99724896 0.04545860
0.65943562 0.31911651 0.36826840
0.51059104 0.99483704 0.04185637
0.50139581 0.51113262 0.04340809
0.00553964 0.50470163 0.03897927
0.35004745 0.67204209 0.71451641
0.34642789 0.17267935 0.69960067
0.66510382 0.84081287 0.38002026
0.82998135 0.15929608 0.69605197
0.15739704 0.83090907 0.37624010
0.84367923 0.67485989 0.70552533
0.16871965 0.32906645 0.37254195
0.99710410 0.99583100 0.04348190
0.65718558 0.31558552 0.37147268
0.49995209 0.99425375 0.04524417
0.50206488 0.51267329 0.03259609
0.00567904 0.51042774 0.03326213
0.33891915 0.66441338 0.70758728
0.32867392 0.16917814 0.70613626
0.66942445 0.83374302 0.37205982
0.82658601 0.16446262 0.70748694
0.16354272 0.83416256 0.37161600
0.83531604 0.66896742 0.71708621
0.17199121 0.33439703 0.37278499
0.00158314 0.00227175 0.03612755
0.66150170 0.32649670 0.37757458
0.49158133 0.00374811 0.04307147
0.49997592 0.49939210 0.04281505
0.00655114 0.51365551 0.03776022
0.31759748 0.65774707 0.70898600
0.32045828 0.16608964 0.70733660
0.67264525 0.82975768 0.37197590
0.83468655 0.18405506 0.71826802
0.17317466 0.83756964 0.36787718
0.81849812 0.65747526 0.71801635
0.17768591 0.34109324 0.37920596
0.01048722 0.00821289 0.03500338
0.66430755 0.33276390 0.38449950
0.49494362 0.00423151 0.03517242
0.49685509 0.49002791 0.05898839
0.00719872 0.50809717 0.04854909
0.30563837 0.65504859 0.71319060
0.32937273 0.16566436 0.70467423
0.66403454 0.82288713 0.37849101
0.84599788 0.19316379 0.71021629
0.17591861 0.83689765 0.37161654
0.81826899 0.66366880 0.70278132
0.16380964 0.33377782 0.37804628
0.01128230 0.99992185 0.04256823
0.66446920 0.32484062 0.38321644
0.50517530 0.99970746 0.03350634
0.49743938 0.49384344 0.05963860
0.00465020 0.50086723 0.05441504
0.31184780 0.65590106 0.71578529
0.34227311 0.17028272 0.70112910
0.65319495 0.81303299 0.37902792
0.85398243 0.19254314 0.70041732
0.17704928 0.83617610 0.37953737
0.82997336 0.67029949 0.69251782
0.14497710 0.31795778 0.36898763
0.01224567 0.00025204 0.04856902
0.66529610 0.31371600 0.37523491
0.50646904 0.00282562 0.04044875
0.50140564 0.50049295 0.04065347
0.99855458 0.49260721 0.04555166
0.32680130 0.66090436 0.71221435
0.34299621 0.16850052 0.70269124
0.65223765 0.80324722 0.37350238
0.85487327 0.18947430 0.70711496
0.18449369 0.84558293 0.38326336
0.83692924 0.66538380 0.69842787
0.14308635 0.31130169 0.36540886
0.01475401 0.00919872 0.04931792
0.66984247 0.31470007 0.36757866
0.48999118 0.00648042 0.04092684
0.50778430 0.50925529 0.02849481
0.99187752 0.49544260 0.03378240
0.33428882 0.67080689 0.70210322
0.32613804 0.15944224 0.70829171
0.66329378 0.80627981 0.36767862
0.84711920 0.18016378 0.72265410
0.19248433 0.85167075 0.38306890
0.83462009 0.66822331 0.70882651
0.14794139 0.31632976 0.36941409
0.01387032 0.01248671 0.04484198
0.67479818 0.32817205 0.36629771
0.48169835 0.00520361 0.03652556
0.51192572 0.51281541 0.03799584
0.99499551 0.50282989 0.03427842
0.32766005 0.66217095 0.70743990
0.31405168 0.15877092 0.70606662
0.67279610 0.82053917 0.36934222
0.83382661 0.16704974 0.72561354
0.19352298 0.84803617 0.38149287
0.81896579 0.67525506 0.70887602
0.15499804 0.32408784 0.37187295
0.00881028 0.00572661 0.04117191
0.67632326 0.33794205 0.37492178
0.49374483 0.00200213 0.03429614
0.51601938 0.51109835 0.05119571
0.00524901 0.50178568 0.04200015
0.32890304 0.66017451 0.71418958
0.31899079 0.16507820 0.69644904
0.67359545 0.83050685 0.37202679
0.83616924 0.16543143 0.71380616
0.18659607 0.84091120 0.37818176
0.80837438 0.68045045 0.70054722
0.15843350 0.32450530 0.37250033
0.00507143 0.99731432 0.04668453
0.67281148 0.34297359 0.38170388
0.50401947 0.99560585 0.03969842
0.52554406 0.51903117 0.05058764
0.00026564 0.48813699 0.04238469
0.34196102 0.67586966 0.71536015
0.32868314 0.16868946 0.69674391
0.66545237 0.82993414 0.37061628
0.84781999 0.17214745 0.70550120
0.18249665 0.84101951 0.37851627
0.81303301 0.67512802 0.69650323
0.15576925 0.32199932 0.37083490
0.00727245 0.00068562 0.05430667
0.66948648 0.34274156 0.37947613
0.49633326 0.99099902 0.04815999
0.53002987 0.52528231 0.03925421
0.98462787 0.47256849 0.03300080
0.34816933 0.68876388 0.71116232
0.33070813 0.16578336 0.70692415
0.65594172 0.82072646 0.36991835
0.84899600 0.17207444 0.71177509
0.17790530 0.84083005 0.38000990
0.82442181 0.66385390 0.70136219
0.15273755 0.32634810 0.37038377
0.00540573 0.00607352 0.05266597
0.67081251 0.33983470 0.37586124
0.47966760 0.99066697 0.05086789
0.51921153 0.51745696 0.03537931
0.98355814 0.47748593 0.03097031
0.34664484 0.68742822 0.70617889
0.32157802 0.15983812 0.71466873
0.66007936 0.82039562 0.37237437
0.84227135 0.16932689 0.72028395
0.17455963 0.83639698 0.37854337
0.82764137 0.66028119 0.70935175
0.15371037 0.33616335 0.37249249
0.99620032 0.00633371 0.04414255
0.67541183 0.33846986 0.37575333
0.47203929 0.99205397 0.04181947
0.49961408 0.50303319 0.04534296
0.99278394 0.49409035 0.03649265
0.34225791 0.67499763 0.70645770
0.31860573 0.15769391 0.71054854
0.67016918 0.83118256 0.37601062
0.83697755 0.17114886 0.71329920
0.17725366 0.83404629 0.37436978
0.81977256 0.65961531 0.70952822
0.15905452 0.34414473 0.37443260
0.99615260 0.00733149 0.04095102
0.67738132 0.34152656 0.38169525
0.48033009 0.99273507 0.03535058
0.49734124 0.49798538 0.05351592
0.99717757 0.49693468 0.04268725
0.33868114 0.66666162 0.70740538
0.32640966 0.15800480 0.70303966
0.66924184 0.83613094 0.37987315
0.83950796 0.17181670 0.70284640
0.17689964 0.83315891 0.37043460
0.81706362 0.65708023 0.70452696
0.16417160 0.33995998 0.37313468
0.00430782 0.00408785 0.04108038
0.67339373 0.34564873 0.38172322
0.49532955 0.99567993 0.03895745
0.51087936 0.50265797 0.05024419
0.99655991 0.48777029 0.04348721
0.34034879 0.67124462 0.70718987
0.33801403 0.16127779 0.70467080
0.66071835 0.83670745 0.37860968
0.84849524 0.17077678 0.70365327
0.17325096 0.83101804 0.37068797
0.83055449 0.65685350 0.70555213
0.16616298 0.33235686 0.37128721
0.01171364 0.00098259 0.03987425
0.66952144 0.34224975 0.37308916
0.49703013 0.00049797 0.04333701
0.51012730 0.50176613 0.04060217
0.99638922 0.48478956 0.04069691
0.34058294 0.67723506 0.70687477
0.34129980 0.16466807 0.71015062
0.65920009 0.83373888 0.37339369
0.85117831 0.16868521 0.71015312
0.16806731 0.83046334 0.37389121
0.83525872 0.65921836 0.70965655
0.16565507 0.33454337 0.37494813
0.00953293 0.99962965 0.03687446
0.66671375 0.33657375 0.37053095
0.48934946 0.00255696 0.04184422
0.49743740 0.49814794 0.03877319
0.99949786 0.49657282 0.03899508
0.33933689 0.67328592 0.70791168
0.33318254 0.16119361 0.71132302
0.66876032 0.83402518 0.36990707
0.84408172 0.16683039 0.71174179
0.16484185 0.83460220 0.37477592
0.82965886 0.66241610 0.71331479
0.16389548 0.33428890 0.37905059
0.00154781 0.00222001 0.03620857
0.66487992 0.33564218 0.37642539
0.49048132 0.00153018 0.03781278
0.49317628 0.49874810 0.04403628
0.00429081 0.51042575 0.03921557
0.33805695 0.66531256 0.71459483
0.32641805 0.15587139 0.70641328
0.67538722 0.84156661 0.37226528
0.83796904 0.17126628 0.70511719
0.16653957 0.83879343 0.37325638
0.82725323 0.66407237 0.71210956
0.16466330 0.32796518 0.38087644
0.99684593 0.00625321 0.04081718
0.66534248 0.33840996 0.38141727
0.50339958 0.00075080 0.03811961
0.49825660 0.50127879 0.04584948
0.00290485 0.50758450 0.03962070
0.33679393 0.66182280 0.71675543
0.33176642 0.16100782 0.70453679
0.67340962 0.84639505 0.37448868
0.83547659 0.17236111 0.70115165
0.16652035 0.83815432 0.37124861
0.83240611 0.66666907 0.71127372
0.16679803 0.32418565 0.38042507
0.99887624 0.00568020 0.04446937
0.66730078 0.34087820 0.37782051
0.51193533 0.00144319 0.04259532
0.50237783 0.50316056 0.03990205
0.99698904 0.49701259 0.03757829
0.33360944 0.66515425 0.71266945
0.34324656 0.17202148 0.70777061
0.66613602 0.84199660 0.37302477
0.83384739 0.16852597 0.70558685
0.16046805 0.83265351 0.37401205
0.84063321 0.66871467 0.71476332
0.16380982 0.32713567 0.37642467
0.00292983 0.00215549 0.04111946
0.66698139 0.33583091 0.37017601
0.50728091 0.00040685 0.04543793
0.49850698 0.49955569 0.03363957
0.99744848 0.49800234 0.03641335
0.32709202 0.66897418 0.70978520
0.34485146 0.17631926 0.70941584
0.66099716 0.83035451 0.37165178
0.83027065 0.16554834 0.71095084
0.15500947 0.82824644 0.37709086
0.84036131 0.66441419 0.71570385
0.16310585 0.33440187 0.37491838
0.99897819 0.99855631 0.03716819
0.66360372 0.33097980 0.36991253
0.50104496 0.99873219 0.04493203
0.49117397 0.49370683 0.03542508
0.00375547 0.50824280 0.04126691
0.32458462 0.66327891 0.70944533
0.33507774 0.17003813 0.70826227
0.66494934 0.82713510 0.37373520
0.82432062 0.16299927 0.71004598
0.15968030 0.83133613 0.37519945
0.83762598 0.66348176 0.71466170
0.16972620 0.33787310 0.37664829
0.99133972 0.00083929 0.03849237
0.66177123 0.33025475 0.37497881
0.50698094 0.99846273 0.04132869
0.48907701 0.49358090 0.04112527
0.00479709 0.51357233 0.04787441
0.32749438 0.65890902 0.70981821
0.33228791 0.16633506 0.70581488
0.67069868 0.83358088 0.37983636
0.81996872 0.16123959 0.70384868
0.16772665 0.83322688 0.37193758
0.84103619 0.66908605 0.71065499
0.17758700 0.33659516 0.37619324
0.99633171 0.00680213 0.04079732
0.66289888 0.33061644 0.37417597
0.52081447 0.00443967 0.04193346
0.49413333 0.49498064 0.04156930
0.00102010 0.50918184 0.05019685
0.32952027 0.66263817 0.70657564
0.33716962 0.17015187 0.70643575
0.67154558 0.83767931 0.38237530
0.82123726 0.15960712 0.70344368
0.16568169 0.82472917 0.37281579
0.84701085 0.67672098 0.70636918
0.18050886 0.33472563 0.37254143
0.00657519 0.00252988 0.04031961
0.66523240 0.33227893 0.36632993
0.52380347 0.00812111 0.04642009
0.49921704 0.49501347 0.03558616
0.00219605 0.50472782 0.04727543
0.32994260 0.66719813 0.70061834
0.33976883 0.17414890 0.71357258
0.66909301 0.83643912 0.37757144
0.82372612 0.15661494 0.71115959
0.15598765 0.81755344 0.37679168
0.84832307 0.67920636 0.70694808
0.17865438 0.33553025 0.37065737
0.00595023 0.99273316 0.04072387
0.66855801 0.33365529 0.36363328
0.51173674 0.00613699 0.04745521
0.49565912 0.49465928 0.03097346
0.00970210 0.50609698 0.04189445
0.32862218 0.66883720 0.69801009
0.33945090 0.17836677 0.71645474
0.66611097 0.83086129 0.37412228
0.82272607 0.15542419 0.71364447
0.15296260 0.82359977 0.38122511
0.84170463 0.67566778 0.70869001
0.17784766 0.33784754 0.37360050
0.99624769 0.99014937 0.04242888
0.66513698 0.33050529 0.37364431
0.50043241 0.00214026 0.04329328
0.49000071 0.49495170 0.03527435
0.01257968 0.51025848 0.04155870
0.32790923 0.66730152 0.69980687
0.33472915 0.17570345 0.71324943
0.66730448 0.82986578 0.37701852
0.81923330 0.15685238 0.70654544
0.15852004 0.83683748 0.37758674
0.83554344 0.67285268 0.70943059
0.17697640 0.33675579 0.37661977
0.98738224 0.99472130 0.04208149
0.66296298 0.32816122 0.38274730
0.50078028 0.00095080 0.03982834
0.49312356 0.49842723 0.04280004
0.00723071 0.50972413 0.04433112
0.33266310 0.66722680 0.70296098
0.32755729 0.16689700 0.70996706
0.67100883 0.83820763 0.38212810
0.81649028 0.15891388 0.69970439
0.16629327 0.84088722 0.36861152
0.83669344 0.67324065 0.70897004
0.17318853 0.33421736 0.37693950
0.98924003 0.99578595 0.03826597
0.66873777 0.33116878 0.37941433
0.50457270 0.00301523 0.03945049
0.50228931 0.50313536 0.04606851
0.00258950 0.50269001 0.04190944
0.33455150 0.66913590 0.70355987
0.32965034 0.17131637 0.70927076
0.66919157 0.84306602 0.38240573
0.81759243 0.16017476 0.70310884
0.16721940 0.83504792 0.36383517
0.83749202 0.66901623 0.70756538
0.16937743 0.33740668 0.37495460
0.99965934 0.99265678 0.03717477
0.67375440 0.33202771 0.37209663
0.50100288 0.00372860 0.03991514
0.50453108 0.50480768 0.04565149
0.00263256 0.49879871 0.03954746
0.33007204 0.66886473 0.70483139
0.33758674 0.17933862 0.71340072
0.66424918 0.83997940 0.37719992
0.82660459 0.16263667 0.71318968
0.15870592 0.82748242 0.37090688
0.83524788 0.66311509 0.70835655
0.16785584 0.34153590 0.37418294
0.00474965 0.99132088 0.03994894
0.66805681 0.32647745 0.37137755
0.49206071 0.99880905 0.03694481
0.49752988 0.50243466 0.04430239
0.00574290 0.50114624 0.03857861
0.32749320 0.66578122 0.71531740
0.33864422 0.17238219 0.71353187
0.66559046 0.83618462 0.37351065
0.83776246 0.16773215 0.71468838
0.16039647 0.83089965 0.37835853
0.83272617 0.66016924 0.70699799
0.17211296 0.34292031 0.37914213
0.99671632 0.99577265 0.04370427
0.65445202 0.32049813 0.37594700
0.49067631 0.99693231 0.03308857
0.48979565 0.49749499 0.04513428
0.00313144 0.50094122 0.04049006
0.33691476 0.66723802 0.71991064
0.32704858 0.15762928 0.70943432
0.67412070 0.83787843 0.37412362
0.84853150 0.17539671 0.70726248
0.17472288 0.84085281 0.37379810
0.83405997 0.66428840 0.70542911
0.17650148 0.34067132 0.38380024
0.99293124 0.00292640 0.04192794
0.65077752 0.32693395 0.37264040
0.50299647 0.00278248 0.03188833
0.49275524 0.49553034 0.04630276
0.99505831 0.49706371 0.04467336
0.34843133 0.66741328 0.71515280
0.32281331 0.15010093 0.70751687
0.68279696 0.84785540 0.37696756
0.85188524 0.18029234 0.70318377
0.18371187 0.84131565 0.36739245
0.83905416 0.66827620 0.70442878
0.17319258 0.33652863 0.37920196
0.00095462 0.00359218 0.03838857
0.66396862 0.33990862 0.36368501
0.51145588 0.00707278 0.03328589
0.50687020 0.49866130 0.04389839
0.99110206 0.49703653 0.04263721
0.34613326 0.66211250 0.71327816
0.33368250 0.15908736 0.70511689
0.68001776 0.85248668 0.37481201
0.84752424 0.18028606 0.71055113
0.18014245 0.83433216 0.37686998
0.83638509 0.66496484 0.70038334
0.16654266 0.33465906 0.36730581
0.00684616 0.99160119 0.04227738
0.67220374 0.34886274 0.36820117
0.49420203 0.99542411 0.03456103
0.51295391 0.50134593 0.03992290
0.99322134 0.49424477 0.03589320
0.33469719 0.65482577 0.71431438
0.33808857 0.16964115 0.70220521
0.67144855 0.84133322 0.36508576
0.85039031 0.17901063 0.72293476
0.17341660 0.83721595 0.38914496
0.82610823 0.65731146 0.70249892
0.15475714 0.33198242 0.35883513
0.00265362 0.98515893 0.04372379
0.66613395 0.34856794 0.38653081
0.47178805 0.98399804 0.03437578
0.50820981 0.50250799 0.03886292
0.99732920 0.49365581 0.03026232
0.32739033 0.64876764 0.71702818
0.32859473 0.16461626 0.69545941
0.65730841 0.82540153 0.36406178
0.85882355 0.17650502 0.72078065
0.18073451 0.85513124 0.38956586
0.81899337 0.65660909 0.70607386
0.13660455 0.32352225 0.36291002
0.99379789 0.99451142 0.03934179
0.66075935 0.33960325 0.40115440
0.47378172 0.98921021 0.03987575
0.50543367 0.50513018 0.04461363
0.99198652 0.49540684 0.03751740
0.33466912 0.65517464 0.71444901
0.33026711 0.15972567 0.69162770
0.64913100 0.81717233 0.36917476
0.85989353 0.17689968 0.71080316
0.19348635 0.86021649 0.38019381
0.81624609 0.65757395 0.70589201
0.12964305 0.31802223 0.36952670
0.99183365 0.00975023 0.04020122
0.66316770 0.33583682 0.39710604
0.48864093 0.00078230 0.04427004
0.50870563 0.50491649 0.05045291
0.98114941 0.49326384 0.05120012
0.34624042 0.66451536 0.71140985
0.33983857 0.16040191 0.69596745
0.65343408 0.82915350 0.36720714
0.85123580 0.18000958 0.70828888
0.19400184 0.84456134 0.37656755
0.81977514 0.66021425 0.70388157
0.13945180 0.32190805 0.37224717
0.00209272 0.01531036 0.04763761
0.67358948 0.33885504 0.38496748
0.48883965 0.99912677 0.03737064
0.51453962 0.50554092 0.04781824
0.97718589 0.48764551 0.05218872
0.34655589 0.67209444 0.71656273
0.33900945 0.16044401 0.69968539
0.65716755 0.83577699 0.36595727
0.84419508 0.17869772 0.71413626
0.19198329 0.83465625 0.37995730
0.82508380 0.66209490 0.69819591
0.15211371 0.33327033 0.37048656
0.01731090 0.01083083 0.05573819
0.67918308 0.34240926 0.37817249
0.47647973 0.98545756 0.03499338
0.51617276 0.50461658 0.03762637
0.98680014 0.48400177 0.04299834
0.34143354 0.67482529 0.71669943
0.33014424 0.15832583 0.70350275
0.65276018 0.82029239 0.36880175
0.84737087 0.17215517 0.71853286
0.19018114 0.83945890 0.38395613
0.82308043 0.66599855 0.69551655
0.16043452 0.33630179 0.36767712
0.02289676 0.00443136 0.05373328
0.67286785 0.34553184 0.37745061
0.47273522 0.98242424 0.04241238
0.51730333 0.50391773 0.02731355
0.99883407 0.48723287 0.03249009
0.34450983 0.67555848 0.70668544
0.32456795 0.15075248 0.70921104
0.65074116 0.81034239 0.37077978
0.84308159 0.15744561 0.71437747
0.18540930 0.84785078 0.38102923
0.82111897 0.67215909 0.69902243
0.15497275 0.32528694 0.37010739
0.01283037 0.00492532 0.04190580
0.67850116 0.34739741 0.37873169
0.48828852 0.99920454 0.04949136
0.52115667 0.50784578 0.02952925
0.99555609 0.48825897 0.03233508
0.35081444 0.68673322 0.69654989
0.33092386 0.15525423 0.71201770
0.64971042 0.81399339 0.37267481
0.83460167 0.15392779 0.70727426
0.17728363 0.84705161 0.37249327
0.82269540 0.67454984 0.70380433
0.15830703 0.32413765 0.37051870
0.99973490 0.01185981 0.03709973
0.68670441 0.34678859 0.37608837
0.50651673 0.01501761 0.04762488
0.52153459 0.50895802 0.04289515
0.98840442 0.49123566 0.04247587
0.35064933 0.69147713 0.69832248
0.33863855 0.16629141 0.71319231
0.65351630 0.82197639 0.37427698
0.83252868 0.16198310 0.70447599
0.16987677 0.83774809 0.37064488
0.82708611 0.67638552 0.70943780
0.16667425 0.33409982 0.36772161
0.99638483 0.01241153 0.03890662
0.68898327 0.34302767 0.37138883
0.50987679 0.01183425 0.03609882
0.51703493 0.50489180 0.04777463
0.98939426 0.49746111 0.04676300
0.34042172 0.68113520 0.71079259
0.33191614 0.16453644 0.71333095
0.65704181 0.82515919 0.37566478
0.83757972 0.17135185 0.70612811
0.16864362 0.82863608 0.37304092
0.82415551 0.67054157 0.70799719
0.16713871 0.33176979 0.37098552
0.00260587 0.00503718 0.04496672
0.68412406 0.33780099 0.37057294
0.48806445 0.99822481 0.03638926
0.51014277 0.50302751 0.04387407
0.00116206 0.49832300 0.03882932
0.32927469 0.66753511 0.71517086
0.31926382 0.16080144 0.71101031
0.66181425 0.82272747 0.37611408
0.84015344 0.17007797 0.71192701
0.16733122 0.82859420 0.37444086
0.81595392 0.66216382 0.70783492
0.16415027 0.32481915 0.37458908
0.00679798 0.00312336 0.04802141
0.67530787 0.33340710 0.37089588
0.47566124 0.98810266 0.04406586
0.50591785 0.50391343 0.04154210
0.00852620 0.49418117 0.03016541
0.32814814 0.66398892 0.71139463
0.31963504 0.16259214 0.70883881
0.66669472 0.82685748 0.37577584
0.83501936 0.16470126 0.71285146
0.16342390 0.83557643 0.37557128
0.82307148 0.66181287 0.71387478
0.15745870 0.32171988 0.37367310
0.00041588 0.00759442 0.04675764
0.67313486 0.33127182 0.37128779
0.49022119 0.99291105 0.04312434
0.50441897 0.50392200 0.04305485
0.00358594 0.49508251 0.02988916
0.33050443 0.66705011 0.70689285
0.33323196 0.16900740 0.70822207
0.66496047 0.83416626 0.37067376
0.82940978 0.16646743 0.70610210
0.16574106 0.83604823 0.36761931
0.83590229 0.66232984 0.71512595
0.16040581 0.32808158 0.37416336
0.99688962 0.00757213 0.04300594
0.67251519 0.32925220 0.37085911
0.50898043 0.00777303 0.04107860
0.49877660 0.50203000 0.04442819
0.00076384 0.50232947 0.03919189
0.33100572 0.66836262 0.71059896
0.34062904 0.17328231 0.70980663
0.66967820 0.84142646 0.36816334
0.83141335 0.17035771 0.70237967
0.16855376 0.83233405 0.36382986
0.83926431 0.66138665 0.71237395
0.17032141 0.33301144 0.37740312
0.00066430 0.00106855 0.03820008
0.66841933 0.32871517 0.37143142
0.51335747 0.01154764 0.04190851
0.49363080 0.50286637 0.04009261
0.00412494 0.50604630 0.04420007
0.32960981 0.66703878 0.71966264
0.33608238 0.17034559 0.70969173
0.67533464 0.84233013 0.37119851
0.83492763 0.17204161 0.70411840
0.16725533 0.82832137 0.37155000
0.83670371 0.66053530 0.70981833
0.17487732 0.33295154 0.37807911
0.00733364 0.99795402 0.03771998
0.66476823 0.33375318 0.37451796
0.50360748 0.99903860 0.04634239
0.49495615 0.50368434 0.03632618
0.00955177 0.50508577 0.03964351
0.32449485 0.66452500 0.71579139
0.33132472 0.16647053 0.70765044
0.67226662 0.83522219 0.37579717
0.83090423 0.16827468 0.70899179
0.16096631 0.82828039 0.37791018
0.83451585 0.66416070 0.71092730
0.17837010 0.33370315 0.37638873
0.00774702 0.99846468 0.03772726
0.66039832 0.33903916 0.37437361
0.50169761 0.99319058 0.04882594
0.49713772 0.50248111 0.03735852
0.00961383 0.50123850 0.03675910
0.32765862 0.66399706 0.70342707
0.33529856 0.16698687 0.70674480
0.66983374 0.83350042 0.37897742
0.82225417 0.16388827 0.70865927
0.15422982 0.83196499 0.37606433
0.84108822 0.67134157 0.71318892
0.17614970 0.33795148 0.37828846
0.00053746 0.99875128 0.03478927
0.65887189 0.33471515 0.37239844
0.51400497 0.00413420 0.04451647
0.49616346 0.50113020 0.04035554
0.00352709 0.50255450 0.04057675
0.33458322 0.66550520 0.69836980
0.34532468 0.17371725 0.70830759
0.67016693 0.83693286 0.37743615
0.82042935 0.16713336 0.70447853
0.15477529 0.83361218 0.36983771
0.84911913 0.67323404 0.71454048
0.17020570 0.34248578 0.37904226
0.99618671 0.99962350 0.03495628
0.65866483 0.32633662 0.37161869
0.52001269 0.01144823 0.04134780
0.49174449 0.49787632 0.04315561
0.00197713 0.50932560 0.04665835
0.33186646 0.66391081 0.70232727
0.34483532 0.17502783 0.70843605
0.67248572 0.83836127 0.37516475
0.82766934 0.16891441 0.70505856
0.15929687 0.82922015 0.37086619
0.84578577 0.66980582 0.71129546
0.16675822 0.33874722 0.37940077
0.99623124 0.99987159 0.03788854
0.65745335 0.32528738 0.37143618
0.51143107 0.00640880 0.04308733
0.48731299 0.49337331 0.04092995
0.00607280 0.50926423 0.04665694
0.32691958 0.65711674 0.70794650
0.33394208 0.16405405 0.70802645
0.67461821 0.83835156 0.37587292
0.83193974 0.16686411 0.70869947
0.16049431 0.82454965 0.37896054
0.84047802 0.66627084 0.70576664
0.16659194 0.33242886 0.37983589
0.99665375 0.99781982 0.04173005
0.65919102 0.32897618 0.37162099
0.50171182 0.00129667 0.04613215
0.48774502 0.49202744 0.03724594
0.00577394 0.50122215 0.04161982
0.32747825 0.65722379 0.70495088
0.33019099 0.16169388 0.70919735
0.67259545 0.83897260 0.37818757
0.82628622 0.16200044 0.71096927
0.15894295 0.83138116 0.37872349
0.84006405 0.66924080 0.70548763
0.16941321 0.33472856 0.37822679
0.99866464 0.99837389 0.04378376
0.66059495 0.32979572 0.37209216
0.50213382 0.00447111 0.04688868
0.49067223 0.49268979 0.03794153
0.00309303 0.49569412 0.03931152
0.33302303 0.66222655 0.69942342
0.33913582 0.17029721 0.70955318
0.67020708 0.84375469 0.37921845
0.82086805 0.15764877 0.70745136
0.15714215 0.83899283 0.37226064
0.84661237 0.67765208 0.71027742
0.16834195 0.33931903 0.37592953
0.99818741 0.99735269 0.04175813
0.66347202 0.32936225 0.37221257
0.50855576 0.00986236 0.04267936
0.49399192 0.49278470 0.04055443
0.00364211 0.50124010 0.04221731
0.33662121 0.66585863 0.70343990
0.34732675 0.17564332 0.70995983
0.66669807 0.84557011 0.37695097
0.82589791 0.15903826 0.70335269
0.16285297 0.83402221 0.36875236
0.84835806 0.67655987 0.70985050
0.16462407 0.33800039 0.37402763
0.99915569 0.99743997 0.03690828
0.66736633 0.33169541 0.37182555
0.50883861 0.00882620 0.03917421
0.49531408 0.49225010 0.04335142
0.00541430 0.51121678 0.04577217
0.33379478 0.66547689 0.71288548
0.34077208 0.17351975 0.71133485
0.66562659 0.83761801 0.37678535
0.83526399 0.16158249 0.70516427
0.17026202 0.82677224 0.37279644
0.83937704 0.66986677 0.70406023
0.16840033 0.33395281 0.37235695
0.00176023 0.99975145 0.03411764
0.66802018 0.33646214 0.37151701
0.50143528 0.00031831 0.04026186
0.49795343 0.49665493 0.04415535
0.00521067 0.51017570 0.04509605
0.33094507 0.66001700 0.71480778
0.32900791 0.16829688 0.71272369
0.66842193 0.83025002 0.37896509
0.83368268 0.16058657 0.70892106
0.16740470 0.82692404 0.38143513
0.83346332 0.67074261 0.70247082
0.17467918 0.33287472 0.37136868
0.99980693 0.99675299 0.03800843
0.66879201 0.33839316 0.37228376
0.49511997 0.99414451 0.04320281
0.50527367 0.50449099 0.04139805
0.00232302 0.50058842 0.04104673
0.33082879 0.65857693 0.70832285
0.32873702 0.16830254 0.71499762
0.66979119 0.83397768 0.37746295
0.82620959 0.16139798 0.71124863
0.16052017 0.83109419 0.38102345
0.83322275 0.67325964 0.70640033
0.17542797 0.33576273 0.36995998
0.99865637 0.99504614 0.04481142
0.66995469 0.33585887 0.37291702
0.49558013 0.99869385 0.04421902
0.50816162 0.50371117 0.04007752
0.00006886 0.49718646 0.04108539
0.33537088 0.66564483 0.70278265
0.33569607 0.17091393 0.71435851
0.66764324 0.83822616 0.37383747
0.82960374 0.16549062 0.71047848
0.16354961 0.83588383 0.37506862
0.83024052 0.66955848 0.70797375
0.16567957 0.33658045 0.37243226
0.99847245 0.99842474 0.04514969
0.67171547 0.33359469 0.37297793
0.50174526 0.00412627 0.03635012
0.50796753 0.50222647 0.04145767
0.99853406 0.50336555 0.04505399
0.33548637 0.67139147 0.70682802
0.33693366 0.16796514 0.71011082
0.66222943 0.83233471 0.37123307
0.84375797 0.17428648 0.71015560
0.17784864 0.84174808 0.37452669
0.82533025 0.66220549 0.70695074
0.15191048 0.32906965 0.37411081
0.99934018 0.00314112 0.04103482
0.66979279 0.33098434 0.37542485
0.50066059 0.00134535 0.02918170
0.50814554 0.50497107 0.04412068
0.99784215 0.50484230 0.04310361
0.32589935 0.66824579 0.71487077
0.32893310 0.16046802 0.70441468
0.65925023 0.82119541 0.37091526
0.85097541 0.17899730 0.71362574
0.18757197 0.84447308 0.37770044
0.81887295 0.65581496 0.70350281
0.15326053 0.32250050 0.37519057
0.00296122 0.00626546 0.03980521
0.66430219 0.33047366 0.38061208
0.48953550 0.99541954 0.03273195
0.50658387 0.50862843 0.04390848
0.99688471 0.49537465 0.03556942
0.32101515 0.66305823 0.71847102
0.31811488 0.15337362 0.70202474
0.66864679 0.82370951 0.37106550
0.84397509 0.17525893 0.71386300
0.18237754 0.84111498 0.38128210
0.81573140 0.65637595 0.70207128
0.16228842 0.32087856 0.37438267
0.00484643 0.00463525 0.04437471
0.66435314 0.33186675 0.38556027
0.48591020 0.99602796 0.03725827
0.51041079 0.51177690 0.04130945
0.99680060 0.48705686 0.03109319
0.32995863 0.67308052 0.71639318
0.31793643 0.15916389 0.70175525
0.67152481 0.83571102 0.36713106
0.83691742 0.17351102 0.70870471
0.17865371 0.84026118 0.37949984
0.81468969 0.65980530 0.70692595
0.16448439 0.32379987 0.37042856
0.00325650 0.00192618 0.05358667
0.66925750 0.33039287 0.38738120
0.49245593 0.99836319 0.03679071
0.51944838 0.51205846 0.04338543
0.00027993 0.49085772 0.03010194
0.34238124 0.68958096 0.71027841
0.32753258 0.17254706 0.70088178
0.66190966 0.84353618 0.36299743
0.84750023 0.18002450 0.70552191
0.18509805 0.84308694 0.37715355
0.81683906 0.65914887 0.71000745
0.16062291 0.32702524 0.36864471
0.00016596 0.99967272 0.05546407
0.67441943 0.33314405 0.38742247
0.49891270 0.99310138 0.03245984
0.52245415 0.51070653 0.04773593
0.00376936 0.50201271 0.03090080
0.34482524 0.69097332 0.70827537
0.32436979 0.16763211 0.69918279
0.65442377 0.83216323 0.36850969
0.86263841 0.18206678 0.70808548
0.19268808 0.84430628 0.38140910
0.82337128 0.65513114 0.70632874
0.15410243 0.32558213 0.37222214
0.00170470 0.99732607 0.04768968
0.67565291 0.34420235 0.38375843
0.49792318 0.98860962 0.03206921
0.51613904 0.51016017 0.04961488
0.00195926 0.51139506 0.03241484
0.33757240 0.67838883 0.71310028
0.31417012 0.15084658 0.70109878
0.65316264 0.81272616 0.37767124
0.86411585 0.17547433 0.71479774
0.19256183 0.84160763 0.38608003
0.82506650 0.65230176 0.70288194
0.15153830 0.32282324 0.37446157
0.00721639 0.00617668 0.04444942
0.67419107 0.35284086 0.37915944
0.48953757 0.99173669 0.04012078
0.50837984 0.50667923 0.04806700
0.99368457 0.50579120 0.03483172
0.33517364 0.67303548 0.71488027
0.30828606 0.14390331 0.70547318
0.66309626 0.81139885 0.37895867
0.85304493 0.16982810 0.71398835
0.17627972 0.82982156 0.38694372
0.82429684 0.66203867 0.70234051
0.15422808 0.32394748 0.37855864
0.01192521 0.01514745 0.04624600
0.67934416 0.34796079 0.37936717
0.48203446 0.99507251 0.04472509
0.51301664 0.50311268 0.04213612
0.98251906 0.49124093 0.04075685
0.34272747 0.68063612 0.70606703
0.31290031 0.15470011 0.70734735
0.67124431 0.83318767 0.37275139
0.84072818 0.17526911 0.70755536
0.16384597 0.82499401 0.37496801
0.82216429 0.66591904 0.70464903
0.15823260 0.33358858 0.37837233
0.01252291 0.01418502 0.04848567
0.67891854 0.32992791 0.37840751
0.48332669 0.99676007 0.04098103
0.52141077 0.50157728 0.04074322
0.98093115 0.48791168 0.04816891
0.34480293 0.68163621 0.69877666
0.32386219 0.16717628 0.70747537
0.66065370 0.84634800 0.36976626
0.83766545 0.18529139 0.70434597
0.16745229 0.83199162 0.36109050
0.82194825 0.65596502 0.70581393
0.15790652 0.34393758 0.37170687
0.01062970 0.00732836 0.04608603
0.66610548 0.31632280 0.37840763
0.49189019 0.99747350 0.03547935
0.52030341 0.50268568 0.04434728
0.98777614 0.49661045 0.05081423
0.33957794 0.67452876 0.70432018
0.32784802 0.16013975 0.70913098
0.65413712 0.82894561 0.37026931
0.84456062 0.18299248 0.70172498
0.16547916 0.83097990 0.36289438
0.82844323 0.65138353 0.70216436
0.15426749 0.34137601 0.36528353
0.01587919 0.01046989 0.04175233
0.66031818 0.32696417 0.38133234
0.49558422 0.99001981 0.03727753
0.50933639 0.50051660 0.04326257
0.99373318 0.49975448 0.05106921
0.34173854 0.67475313 0.71803462
0.32841116 0.15035184 0.71002967
0.65669690 0.81184606 0.37885009
0.84118847 0.16096237 0.70318006
0.16325157 0.82651702 0.37265702
0.83421318 0.65768780 0.69826028
0.15151946 0.32429498 0.36855811
0.02392795 0.02299596 0.04136571
0.66495822 0.34481720 0.37840966
0.49272029 0.99055595 0.04763494
0.49584064 0.48889851 0.03473265
0.99258154 0.48845949 0.05020519
0.35479020 0.67696359 0.72584198
0.32968237 0.15541845 0.71044086
0.66665682 0.82425001 0.38036624
0.82861251 0.14708319 0.70424103
0.16585075 0.82949123 0.37534943
0.83508274 0.66804096 0.70271991
0.15917087 0.32537296 0.37495788
0.01228034 0.01669094 0.04433826
0.67486764 0.35001080 0.36939556
0.49099068 0.99466600 0.04987356
0.49332686 0.48830229 0.02931120
0.99261915 0.48790883 0.04398060
0.36365407 0.67693173 0.71996367
0.33828243 0.17744724 0.71122901
0.67362522 0.85091414 0.37453930
0.82240326 0.15320370 0.70474739
0.17057755 0.83681077 0.37104274
0.83347600 0.67507019 0.71249394
0.17571717 0.33756133 0.37719039
0.99704374 0.00161342 0.04893282
0.67263278 0.34531180 0.36746047
0.49812321 0.99403750 0.03997297
0.49565281 0.49953639 0.03120184
0.99577872 0.50278379 0.03467173
0.35123413 0.66998997 0.70650934
0.34202544 0.18296688 0.71879806
0.67056128 0.85677076 0.37241632
0.83106526 0.16588969 0.70629924
0.17147600 0.84009147 0.36918412
0.83787096 0.67356888 0.71775809
0.18245081 0.33736451 0.37437030
0.99788465 0.00258307 0.04717784
0.66167638 0.34183441 0.37143629
0.50726737 0.99406752 0.03407073
0.49266767 0.50307862 0.03691909
0.99820802 0.50862421 0.02966038
0.33091822 0.66494336 0.70088533
0.33484089 0.16753801 0.71757072
0.66401556 0.83499935 0.37419317
0.83835158 0.16451904 0.70706942
0.16334903 0.83416593 0.37342974
0.84476570 0.66717464 0.71642623
0.17685784 0.32953896 0.37209906
0.00473232 0.00892366 0.03849570
0.65969792 0.34200673 0.37227861
0.51114288 0.99855861 0.04018165
0.48848830 0.50176250 0.04128533
0.00351388 0.50761703 0.03238931
0.32954975 0.66623740 0.70655777
0.33162534 0.16259102 0.70896394
0.66273222 0.81858481 0.37703952
0.82985901 0.15714210 0.70856468
0.15605629 0.82899139 0.37864329
0.84785681 0.66535742 0.71613257
0.17116282 0.32579894 0.37420507
0.00508774 0.00645589 0.03146249
0.66139597 0.33622249 0.37033644
0.51111392 0.00591477 0.05287669
0.48839220 0.49938948 0.04120030
0.00471405 0.50130294 0.03814506
0.33763443 0.66527474 0.71167791
0.33643351 0.17206542 0.70422982
0.66730616 0.82914627 0.37525246
0.81380958 0.15483738 0.71072602
0.15596991 0.82872983 0.37315340
0.84635832 0.67288271 0.71961661
0.17292826 0.33195541 0.37897560
0.99215056 0.99425724 0.03124253
0.66063521 0.32725506 0.36951235
0.50720918 0.00536825 0.05822827
0.49507932 0.50204258 0.03997576
0.00143823 0.50076764 0.04044932
0.33133095 0.65968429 0.70605525
0.33958559 0.17924222 0.70681195
0.67123719 0.84732887 0.37475509
0.80948531 0.16161522 0.71144970
0.16162907 0.83240395 0.36397832
0.84507141 0.67301647 0.71926985
0.18046997 0.34295555 0.38160822
0.98097958 0.98707598 0.03418259
0.66089583 0.32545685 0.37091298
0.50528413 0.00330924 0.04800943
0.49671333 0.50239310 0.04165720
0.00130094 0.50538391 0.04081986
0.32118931 0.66194222 0.70208739
0.33629405 0.17033816 0.71087268
0.67337033 0.84979964 0.37804046
0.81889808 0.16913908 0.70788837
0.16722786 0.83795161 0.36402646
0.84571237 0.66616986 0.71498328
0.18334243 0.34307820 0.37879025
0.98623140 0.99257307 0.03947526
0.66226685 0.32815579 0.37347963
0.51089998 0.00684702 0.03878157
0.48635175 0.49275164 0.04518094
0.00520104 0.50555899 0.04388315
0.31859963 0.66838099 0.70315699
0.33399903 0.15785643 0.71089713
0.67095176 0.83475729 0.37662200
0.82841625 0.16570243 0.70502429
0.16040573 0.83152578 0.36929655
0.84277656 0.66594871 0.71099645
0.18017019 0.33547931 0.37510198
0.99730887 0.99573985 0.04152115
0.66460866 0.33078806 0.37293946
0.51293633 0.00495112 0.04273310
0.48303391 0.48977584 0.04342601
0.00896196 0.50474171 0.04734007
0.32587578 0.66971128 0.70786345
0.33698859 0.16022692 0.70834866
0.67444849 0.82651844 0.37025260
0.82896344 0.15918710 0.70574465
0.15208524 0.82276208 0.37311006
0.83626075 0.66871536 0.70731925
0.17414972 0.33214015 0.37715974
0.99992913 0.99408238 0.04106431
0.66520058 0.32936211 0.37033328
0.50826455 0.00295634 0.05154007
0.49107791 0.49453816 0.03770628
0.00872550 0.50487902 0.04630802
0.33346784 0.66451986 0.70831926
0.33914487 0.17464032 0.70844399
0.68323545 0.83471946 0.36746890
0.82479559 0.15869852 0.70766946
0.15524573 0.82526621 0.37299354
0.83618256 0.67068493 0.70679615
0.17171423 0.33640114 0.37884785
0.99507141 0.99451220 0.04248798
0.66498362 0.32643953 0.37003004
0.50370532 0.00544052 0.05097480
0.49889858 0.50038306 0.03741848
0.00850847 0.50791441 0.04237422
0.33176639 0.66042492 0.70394776
0.33828688 0.18337944 0.71043798
0.68192234 0.84154540 0.36965763
0.82272432 0.16366830 0.71051369
0.16309766 0.83249864 0.37247514
0.84004535 0.67210345 0.70776096
0.17537923 0.34160012 0.37598566
0.99342602 0.99700579 0.04315477
0.66882007 0.33141610 0.37241887
0.50202473 0.00597778 0.04127583
0.49924372 0.50239232 0.04105553
0.00989146 0.50985556 0.04146127
0.32720945 0.66352419 0.70210229
0.33340472 0.17587122 0.71115414
0.67299560 0.83953921 0.37599307
0.83008203 0.17102003 0.71020947
0.16381717 0.83245547 0.37646930
0.83843629 0.66932833 0.70565199
0.17437149 0.33786643 0.37265282
0.99990895 0.00164503 0.04163315
0.67148276 0.33704533 0.37386235
0.50045645 0.00394932 0.03769915
0.49098885 0.49458635 0.04346066
0.00737593 0.50248255 0.04367932
0.32878113 0.66875837 0.70438706
0.32976881 0.16418968 0.70865221
0.66698236 0.83210727 0.38036700
0.83725453 0.16990602 0.70867406
0.15912208 0.82667815 0.37942751
0.83068607 0.66420503 0.70700152
0.16661211 0.33296073 0.37221917
0.00389622 0.00100192 0.03857638
0.66846373 0.33370268 0.37179305
0.49869867 0.00264675 0.04279704
0.48924032 0.49030306 0.04318136
0.00453005 0.49717061 0.04618615
0.33706441 0.66962788 0.70917825
0.33476805 0.16583674 0.70598849
0.66675123 0.83079027 0.37975903
0.83381299 0.16253382 0.70755021
0.16023730 0.82897058 0.37914652
0.82586226 0.66446840 0.70938564
0.16274506 0.33526137 0.37557815
0.00018765 0.99716352 0.03706333
0.66231808 0.32355874 0.37039021
0.49915267 0.00453578 0.04620646
0.49992879 0.49530098 0.04178931
0.00007016 0.49833416 0.04589486
0.33895715 0.66347943 0.70944375
0.34021163 0.17252084 0.70781306
0.66849540 0.83933885 0.37764997
0.82909972 0.16322740 0.70852687
0.16920007 0.83771795 0.37899179
0.83011919 0.67038125 0.70686075
0.16728050 0.33881044 0.37667535
0.99752910 0.99813109 0.03981499
0.66195361 0.31997613 0.37233189
0.49901710 0.00750488 0.04117903
0.50663806 0.50130798 0.04092561
0.99445606 0.49805818 0.04139148
0.33262225 0.66019292 0.70514413
0.33545850 0.16885394 0.71169744
0.66545395 0.83994888 0.37650928
0.83443521 0.17023263 0.70878378
0.17751877 0.84082374 0.37898427
0.83261403 0.67083162 0.70514915
0.17147105 0.33968344 0.37316912
0.00207900 0.00144776 0.04303645
0.66728926 0.32755825 0.37555792
0.49612185 0.00503966 0.03184574
0.50380873 0.50440229 0.04245049
0.99428236 0.49673447 0.03754305
0.33112327 0.66674528 0.70498310
0.32880184 0.15913914 0.71032084
0.66352831 0.83059733 0.37353175
0.84514236 0.17458847 0.70532654
0.17802265 0.83807601 0.37864337
0.82641350 0.66550589 0.70678445
0.16347179 0.33170849 0.37055014
0.01019763 0.00247620 0.04379207
0.66796940 0.33512423 0.37845890
0.49551936 0.00117939 0.03107769
0.50130591 0.50197423 0.04393477
0.99663898 0.49558514 0.03860199
0.33613691 0.66900641 0.70877454
0.33250942 0.15649625 0.70656558
0.66510749 0.82674208 0.37091905
0.84992206 0.17203899 0.70536625
0.17065695 0.83347929 0.37760872
0.82246483 0.66612365 0.70744014
0.15068735 0.32453078 0.37026511
0.01071853 0.99844415 0.04079088
0.66137880 0.33543224 0.38039361
0.49910289 0.99767396 0.03954463
0.50795985 0.50439954 0.04344015
0.99711550 0.49910960 0.03956787
0.34079520 0.66077671 0.71265283
0.33888287 0.16237605 0.70156965
0.66655569 0.83182383 0.37024737
0.84529346 0.16887354 0.71144064
0.16796737 0.83279620 0.37717900
0.82741893 0.66675102 0.70430999
0.14874028 0.32858056 0.37026042
0.00270666 0.99504980 0.03899260
0.65723947 0.33394873 0.37913112
0.50239698 0.99613126 0.04296101
0.51841531 0.51641297 0.04533007
0.99579320 0.50674531 0.03745104
0.34168410 0.65738405 0.71355132
0.33509401 0.16660943 0.69940513
0.66655055 0.83610309 0.36889743
0.84123840 0.17472579 0.71618880
0.17514392 0.84089909 0.37918102
0.83559892 0.66288422 0.70281344
0.15429295 0.33475299 0.36904223
0.00199101 0.00494664 0.04250337
0.66625521 0.33829048 0.37772832
0.49949823 0.99716839 0.03593384
0.51928953 0.51914486 0.04832750
0.99443949 0.50549150 0.03626834
0.33489357 0.66417308 0.71326688
0.32291328 0.15979044 0.70363275
0.65861068 0.82984906 0.36715313
0.84270722 0.18179580 0.71632238
0.18185894 0.84622408 0.37973329
0.83450251 0.66065997 0.70718606
0.15953511 0.33204820 0.36900072
0.00492901 0.01412653 0.05048891
0.67799332 0.34874806 0.37952085
0.48717395 0.98731586 0.03178265
0.50869151 0.50996997 0.04596139
0.99788322 0.49796751 0.03717224
0.32870674 0.67147415 0.71297324
0.31778064 0.15272713 0.70619517
0.65261362 0.82318849 0.36976684
0.84630100 0.17766522 0.71433985
0.17851410 0.84274084 0.37687287
0.82483620 0.65956054 0.71129438
0.15894444 0.32192145 0.37224866
0.00059174 0.00744901 0.05534707
0.67891698 0.35071118 0.37459172
0.48539221 0.98473818 0.03691661
0.50471376 0.50153832 0.04239323
0.99987492 0.49163704 0.03997907
0.33258885 0.67023832 0.71364043
0.32277139 0.15424973 0.70349477
0.65452574 0.82568572 0.37393934
0.84443473 0.16879869 0.71511327
0.17233763 0.83809745 0.37383156
0.82352526 0.66009814 0.70596434
0.15494806 0.31832467 0.37410162
0.99836715 0.00048146 0.04604343
0.66786593 0.33574239 0.36876387
0.49778516 0.99776474 0.04451330
0.50842879 0.50095701 0.04151185
0.99885888 0.49303763 0.04200328
0.33941497 0.66613207 0.71289658
0.32965793 0.16135954 0.70530710
0.65590594 0.83315276 0.37254054
0.83292461 0.16331086 0.71751074
0.17526347 0.83995742 0.37116316
0.83420590 0.66674799 0.69608398
0.15679264 0.32685301 0.37223842
0.00253179 0.00214033 0.03620978
0.65850698 0.32261571 0.37384730
0.50358943 0.00283774 0.04512372
0.51412792 0.51000718 0.04182807
0.99503457 0.49734675 0.04223896
0.34256748 0.67053202 0.70971411
0.33102381 0.16658996 0.71397703
0.65518443 0.83616298 0.36988108
0.83080409 0.16301854 0.71324779
0.18417284 0.84653885 0.36980080
0.83817752 0.66654160 0.69422550
0.16397717 0.33011051 0.37244337
0.00905641 0.01013165 0.03812596
0.66486892 0.32752131 0.37985681
0.49575515 0.00000100 0.04104276
0.51160798 0.51095295 0.04007775
0.98767563 0.48803845 0.04194326
0.34075605 0.68032341 0.70674814
0.32571993 0.16539930 0.71863523
0.65334453 0.82454325 0.37361427
0.84394818 0.16234181 0.70109410
0.18677328 0.84724721 0.37116135
0.82611308 0.65925308 0.70843186
0.17223188 0.32938869 0.37448373
0.01306955 0.01068942 0.04558906
0.68315994 0.34452285 0.37980905
0.48351418 0.99558578 0.03921174
0.50095871 0.49600072 0.03884872
0.99096816 0.48270932 0.04153165
0.34071225 0.68529061 0.70665365
0.32358833 0.16277549 0.71079367
0.65855432 0.81631239 0.38150470
0.84761052 0.16316859 0.69141484
0.17874641 0.84380257 0.37545451
0.81514531 0.66293024 0.72123454
0.17320162 0.32883321 0.37470734
0.00325587 0.99838344 0.04552075
0.69864054 0.35265209 0.37871297
0.48691361 0.99560955 0.04075727
0.49593485 0.48060315 0.03899693
0.99857572 0.49493525 0.04164570
0.34610752 0.68086722 0.70505974
0.32965238 0.16752628 0.69742895
0.66840980 0.82446674 0.38855291
0.83662677 0.16675919 0.69258897
0.16847142 0.83719504 0.37708100
0.82601815 0.66572048 0.71531691
0.16990791 0.33625740 0.37540133
0.99068100 0.98676041 0.03887864
0.69304353 0.34284648 0.37923520
0.49883182 0.99812190 0.04167641
0.49596275 0.48241364 0.04366944
0.99866127 0.50941608 0.04398549
0.34543312 0.67359941 0.70488372
0.33507981 0.17327412 0.69735744
0.67096319 0.83634623 0.38733453
0.82189830 0.16762114 0.70115268
0.16568153 0.82656486 0.37465759
0.84372776 0.65675712 0.70632965
0.17113175 0.34890844 0.37736382
0.98884432 0.99075471 0.03457344
0.67360371 0.33300434 0.37767358
0.50351659 0.99836075 0.03893715
0.49308480 0.49768066 0.04514010
0.99625083 0.51407334 0.04671207
0.34620166 0.68230634 0.70898969
0.33214337 0.17790674 0.71311885
0.66786505 0.83999382 0.38396211
0.81859650 0.16304030 0.69980023
0.16621711 0.82190459 0.37464801
0.84368332 0.64449500 0.71202016
0.17803901 0.34898642 0.37995485
0.00003446 0.01043198 0.04093062
0.66176544 0.33230223 0.37238063
0.49539995 0.99731918 0.04086204
0.49019021 0.50217367 0.03944089
0.99253339 0.50152184 0.04686269
0.33751107 0.69188976 0.70956334
0.33036265 0.17803387 0.72180698
0.66589472 0.83243934 0.38157944
0.82454959 0.15947669 0.69181555
0.16276209 0.82750195 0.37747746
0.82605329 0.64134850 0.72399434
0.18797391 0.33806926 0.38270875
0.01547443 0.02050424 0.04193193
0.66847691 0.33710404 0.36934723
0.48911979 0.99574844 0.04529180
0.48466887 0.49450079 0.03511095
0.99326644 0.48307153 0.04148541
0.32490274 0.68925913 0.70632620
0.33029272 0.17263552 0.71523356
0.66821780 0.82506605 0.37796161
0.82265138 0.15986611 0.68977711
0.15828165 0.83376415 0.37905777
0.81724175 0.65639349 0.72399997
0.19463843 0.33184227 0.38528629
0.02184443 0.00896889 0.02986889
0.68085284 0.33962571 0.37120512
0.50176192 0.00438549 0.04495263
0.47900350 0.49004674 0.03788755
0.99409935 0.47824923 0.04456470
0.32102072 0.67366535 0.70340489
0.33707177 0.17197405 0.70282877
0.67488966 0.83057259 0.37319289
0.81573886 0.16791285 0.69673187
0.15852944 0.83387470 0.37411129
0.83045723 0.67009421 0.70991191
0.19191599 0.33302653 0.38167460
0.01226433 0.99429608 0.02330175
0.68014048 0.33592483 0.37390358
0.52029252 0.01019632 0.04519817
0.47616784 0.48675640 0.04572148
0.99238136 0.48819027 0.05308332
0.32273869 0.65872270 0.70266185
0.34628498 0.17673519 0.70042413
0.67988623 0.84079862 0.37308732
0.81967296 0.17459631 0.70935182
0.16014021 0.82967389 0.36333833
0.84964780 0.67434809 0.70151600
0.18367835 0.33302855 0.37633629
0.99610323 0.98933743 0.02706170
0.66401953 0.33057015 0.37243561
0.52484694 0.00734891 0.04699727
0.48175649 0.48795303 0.04502523
0.99217321 0.50037224 0.04947571
0.32223949 0.65614892 0.70864398
0.34806124 0.17537691 0.70636944
0.67883630 0.84006775 0.37886921
0.83132468 0.17229052 0.71253647
0.15679571 0.82931532 0.36161243
0.85948660 0.67282483 0.70708261
0.17844111 0.32836068 0.37757190
0.99255947 0.99757215 0.03582776
0.65134790 0.33280182 0.36924260
0.51234531 0.00276286 0.05216499
0.48896377 0.49052890 0.03787155
0.99729627 0.50787507 0.03716679
0.32337351 0.66582348 0.71221963
0.33895970 0.17047544 0.70980641
0.67670775 0.83328104 0.38043231
0.83584751 0.16626490 0.70457242
0.15110893 0.82807129 0.37117053
0.85150800 0.67395255 0.71463618
0.17862184 0.32767278 0.38429807
0.99835843 0.00459836 0.04069926
0.65826960 0.34137858 0.36860661
0.50615532 0.99921792 0.05225087
0.49032897 0.49448551 0.03278676
0.00762054 0.51410685 0.03157804
0.33148275 0.67132600 0.70845861
0.33033252 0.17131359 0.71041420
0.67689704 0.83294653 0.37489911
0.82637116 0.16349770 0.70531078
0.14889934 0.82577977 0.37889763
0.84495626 0.68249644 0.71348146
0.17883360 0.33250865 0.38609431
0.99607922 0.99613699 0.03919868
0.66770548 0.33900878 0.37009007
0.51259448 0.99844002 0.04735088
0.48739226 0.49741056 0.03572315
0.01536585 0.51746566 0.03745849
0.33724323 0.66645916 0.70481148
0.33207664 0.17249781 0.71032754
0.67410848 0.84009369 0.37098670
0.81371945 0.16509711 0.71378555
0.15444292 0.82839359 0.37664462
0.84911693 0.68358980 0.70443863
0.17367528 0.33250451 0.37948687
0.98573026 0.98567385 0.03981224
0.66320059 0.32439044 0.37180791
0.52226053 0.00013073 0.04668767
0.48654854 0.49706232 0.04177602
0.01512201 0.51645378 0.04557919
0.33325814 0.65974821 0.70677896
0.33754902 0.16885335 0.71247587
0.66848173 0.84576859 0.37015619
0.81308538 0.16412797 0.71769920
0.16031952 0.83147366 0.36726851
0.85362410 0.67447930 0.70650324
0.16688015 0.32729023 0.37235089
0.98385140 0.99076113 0.04290064
0.65176483 0.31652382 0.37243905
0.52160296 0.99892214 0.04850702
0.49016174 0.49575221 0.04030997
0.01254370 0.51162469 0.04475340
0.32771627 0.65997176 0.71060435
0.34023902 0.16513820 0.71526566
0.66365996 0.84130919 0.37212758
0.82246720 0.16208426 0.71306228
0.15906860 0.83157253 0.36167974
0.85124081 0.67175421 0.71629133
0.16735789 0.32682677 0.37205857
0.99827824 0.00426108 0.04130611
0.64982385 0.32186740 0.37361956
0.50722096 0.99715599 0.04843804
0.49544994 0.49644381 0.03810913
0.01119570 0.50765220 0.03834665
0.33014301 0.66827368 0.70830233
0.34022247 0.16735557 0.71424105
0.66231944 0.83373971 0.37484748
0.82826145 0.15930351 0.70483523
0.15714864 0.82877076 0.36745360
0.84402408 0.67979472 0.71614620
0.17176714 0.33496727 0.37448488
0.00911345 0.00933072 0.03704626
0.66158204 0.32901451 0.37348768
0.49871921 0.99835665 0.04356322
0.49540004 0.50178836 0.04288788
0.00746359 0.50209763 0.04066165
0.33651083 0.66739119 0.70130640
0.33821031 0.17067154 0.71111818
0.66589295 0.83238847 0.37544411
0.82740323 0.15761115 0.70211802
0.16026896 0.82629323 0.37648825
0.83716248 0.68022151 0.70677688
0.17108852 0.34249599 0.37347268
0.00330239 0.99969968 0.03790962
0.67070954 0.33015943 0.37077620
0.50567060 0.00413743 0.03594426
0.49321796 0.50655090 0.04610714
0.00367250 0.49947768 0.04767759
0.33744621 0.65584296 0.70058764
0.33887962 0.16999047 0.70724117
0.66882399 0.83655439 0.37701359
0.82802865 0.16244513 0.70297415
0.16742535 0.82845101 0.37798126
0.83268126 0.66967093 0.70224657
0.16548283 0.34189694 0.36957364
0.99683793 0.99223911 0.04401098
0.66605747 0.32873597 0.37176348
0.50926482 0.00785496 0.03570926
0.49660597 0.50146029 0.04330493
0.00197586 0.50250062 0.05099068
0.33303896 0.65341660 0.70528010
0.34008588 0.16872704 0.70689131
0.66702447 0.83652886 0.37998343
0.83493107 0.16859713 0.70582613
0.17057052 0.83112816 0.37407080
0.83201598 0.66260303 0.70793949
0.15782432 0.33721565 0.36865665
0.99937754 0.99853909 0.04633543
0.66254593 0.33109639 0.37590762
0.49909650 0.00383134 0.04176035
0.50471946 0.49623301 0.03836982
0.99951750 0.50132192 0.04906392
0.33153443 0.66375624 0.70881887
0.33796920 0.16921605 0.70995350
0.66364213 0.82871138 0.38020945
0.84249895 0.16820040 0.70796306
0.16929200 0.83372848 0.37544806
0.83013988 0.66490560 0.71385920
0.15840154 0.33757019 0.37029310
0.00452263 0.00530756 0.04478616
0.66690394 0.33413751 0.37638279
0.48663295 0.00074149 0.04184354
0.50855824 0.49923434 0.03818061
0.99793647 0.49782407 0.04358237
0.33778902 0.67361945 0.70724858
0.33401685 0.17008289 0.70951703
0.66496216 0.82678592 0.37499662
0.84288227 0.16601625 0.70652619
0.17067258 0.83700158 0.38213256
0.82692352 0.66930603 0.70952980
0.16729985 0.34214682 0.37158080
0.00366870 0.00162559 0.04276526
0.67338661 0.33271250 0.37593572
0.48875753 0.00318361 0.03826423
0.50475758 0.50499048 0.04344151
0.00001695 0.49758881 0.04182147
0.33905928 0.67159897 0.70473210
0.33241892 0.17050864 0.70666918
0.66909640 0.83537623 0.36930133
0.83910596 0.16965835 0.70694063
0.17472733 0.83918258 0.38279825
0.82528487 0.66714711 0.70236787
0.17046401 0.34011267 0.37317675
0.99626936 0.99324306 0.04274320
0.67410425 0.33033736 0.37838304
0.49954017 0.00249116 0.03702849
0.50001162 0.50405549 0.04667198
0.99869276 0.49707346 0.04410594
0.33142326 0.66370280 0.70869830
0.33271634 0.16552151 0.70484773
0.66945091 0.83991080 0.36995440
0.83876835 0.17288107 0.70967916
0.18070113 0.84247169 0.37539331
0.82555998 0.65929581 0.70088727
0.16547138 0.33119569 0.37475261
0.99334244 0.99110453 0.04376884
0.66814185 0.33181425 0.37983970
0.49954030 0.99725347 0.03868442
0.50071866 0.49851622 0.04441241
0.99390248 0.49681798 0.04280774
0.32819796 0.66609338 0.71616382
0.33139342 0.15943702 0.70519644
0.66628738 0.83494681 0.37465717
0.84347938 0.17256873 0.71279223
0.18329356 0.84493268 0.37015693
0.82507271 0.65468723 0.70321120
0.15937847 0.32791914 0.37452167
0.99923183 0.99822152 0.04378147
0.66573238 0.33690943 0.37690157
0.49112904 0.99611415 0.04065890
0.50655514 0.49925052 0.04108854
0.99174466 0.49436407 0.03603246
0.33174659 0.67482694 0.71650891
0.32977738 0.16131303 0.70585496
0.66440870 0.82660790 0.37567174
0.84581361 0.16982809 0.71411418
0.17824441 0.84766808 0.37361262
0.82670037 0.66204173 0.70490471
0.16212729 0.33176527 0.37350942
0.00522139 0.00196837 0.04267130
0.67051572 0.34007559 0.37366979
0.48777358 0.00035554 0.03729885
0.51105470 0.50784631 0.04153662
0.99236341 0.49103134 0.03071020
0.33605339 0.67651492 0.71114746
0.32853422 0.16438786 0.70483724
0.66630982 0.82460771 0.37154943
0.84350604 0.16959825 0.71133590
0.17440508 0.84655067 0.37991225
0.82751964 0.66701968 0.70093057
0.16914677 0.33493614 0.37299429
0.00079052 0.99591132 0.04666489
0.67518076 0.33800206 0.37462715
0.49307065 0.00235359 0.03355829
0.50894697 0.51385978 0.04623010
0.99404539 0.49293861 0.03281023
0.33662896 0.67092294 0.70719469
0.32433644 0.15750266 0.70532569
0.67133320 0.83011071 0.36953117
0.84139378 0.17411982 0.71058762
0.17834345 0.83991866 0.37991577
0.82409393 0.66018544 0.69863367
0.16554862 0.33309106 0.37360208
0.99266289 0.99393683 0.05108098
0.67484804 0.33585055 0.37848542
0.50048418 0.99851094 0.03545397
0.50773039 0.51090931 0.04439821
0.99752559 0.49895942 0.03827722
0.33216414 0.66619825 0.71053985
0.32333077 0.15047378 0.70729091
0.67016373 0.83109033 0.37266790
0.84007311 0.17811831 0.71293716
0.18254811 0.83501132 0.37103752
0.82318747 0.65764779 0.70484315
0.15647672 0.32975230 0.37411166
0.99392902 0.99899501 0.04860540
0.67101627 0.34145780 0.38270819
0.49670250 0.99244614 0.04132427
0.51436094 0.50207328 0.03969076
0.00116577 0.50233057 0.04107060
0.33054688 0.66888141 0.71435249
0.32753380 0.15535987 0.70835240
0.65973201 0.82577478 0.37527711
0.84076313 0.17675960 0.71410328
0.17722487 0.83546156 0.36506380
0.82878271 0.66505411 0.71181276
0.15319081 0.33080918 0.37227177
0.00582792 0.01010111 0.04284635
0.66545281 0.34398188 0.38181282
0.48781490 0.99584662 0.04483606
0.51929092 0.49772221 0.04108967
0.00175855 0.49637500 0.03847138
0.33629994 0.67467844 0.70949816
0.32909623 0.16776514 0.70957566
0.65564725 0.82774598 0.37236111
0.84105664 0.17090118 0.71270610
0.16696550 0.83663396 0.37098608
0.83373952 0.67219503 0.71181906
0.15850399 0.33377641 0.37128299
0.01184224 0.01526680 0.04149001
0.66306214 0.33533033 0.37707640
0.49205493 0.00120418 0.04024347
0.51514118 0.50535924 0.04619220
0.00112415 0.49338336 0.03717193
0.34345312 0.67326498 0.70231462
0.32974478 0.17618904 0.70669407
0.66096675 0.83461621 0.36866808
0.83736746 0.16750885 0.70888209
0.16498663 0.83442365 0.37783781
0.83300879 0.67172630 0.70693567
0.16512103 0.33053479 0.37322397
0.00708560 0.01050273 0.04420918
0.66687504 0.33032278 0.37692879
0.50203880 0.99754002 0.03889796
0.50540607 0.51021471 0.04740429
0.00120322 0.49958149 0.04415215
0.34177365 0.66705256 0.70232520
0.33491794 0.17340539 0.70269864
0.66478970 0.83782236 0.37193935
0.83103029 0.16778372 0.70515240
0.16648149 0.82376255 0.37406042
0.82857756 0.66403032 0.70589897
0.16053671 0.31918611 0.37478167
0.00207066 0.00534601 0.04364608
0.66962194 0.33473749 0.37885223
0.50595342 0.99101254 0.04411798
0.49926660 0.49904872 0.04158752
0.99864022 0.50436711 0.05188187
0.33473844 0.66604492 0.70816240
0.33818792 0.16529724 0.70275789
0.66303752 0.83330011 0.38187604
0.82514577 0.16567150 0.70532651
0.15693810 0.81444575 0.36771863
0.82976324 0.66121117 0.71028305
0.15720707 0.31926307 0.37712037
0.00918597 0.00890614 0.03790670
0.66433805 0.34138037 0.37433667
0.50318273 0.99008445 0.04632709
0.49967307 0.48616241 0.03465274
0.99432712 0.50344037 0.05288671
0.33671438 0.66767843 0.70786311
0.33826316 0.16614356 0.70592914
0.66203465 0.83215243 0.38456438
0.82272248 0.16040278 0.70586482
0.14150404 0.82069089 0.37209968
0.84018309 0.67129462 0.71314530
0.16663389 0.33266803 0.38053798
0.02291505 0.01462329 0.03363408
0.65740728 0.33953464 0.36593565
0.50513902 0.99752482 0.04506487
0.50203122 0.48655787 0.03515854
0.99425973 0.50121618 0.04921956
0.34874428 0.66861738 0.69997050
0.34213684 0.17836077 0.71156388
0.66230202 0.83499334 0.37636566
0.82632831 0.15883147 0.70254239
0.13724025 0.82398983 0.38024691
0.85159118 0.67782516 0.71186068
0.17334449 0.33787193 0.38414017
0.01926027 0.01564171 0.02840093
0.65792906 0.32727410 0.36236853
0.51143359 0.00524451 0.04051670
0.49430243 0.49846698 0.03665231
0.99928985 0.49975035 0.04328204
0.35670062 0.66700426 0.69815136
0.34275291 0.18002979 0.71943028
0.66636104 0.83705578 0.36901755
0.83177799 0.15948673 0.69600254
0.14202932 0.81487404 0.38099808
0.85141002 0.66744387 0.71007829
0.16726552 0.33040589 0.38555085
0.00381693 0.01153413 0.03237438
0.66447515 0.32295930 0.36401590
0.51220431 0.00766012 0.03650006
0.48420462 0.50669320 0.03507978
0.00816836 0.50470092 0.04273348
0.35125523 0.66622161 0.70639130
0.33894030 0.16541694 0.72145789
0.66695944 0.83795891 0.37433853
0.82690146 0.16099445 0.69661706
0.15039013 0.81147863 0.37507154
0.84142346 0.65616764 0.71060479
0.16360386 0.33111740 0.38054288
0.99311285 0.00688738 0.03684358
0.67097417 0.33146756 0.36858959
0.51218882 0.00804350 0.04254423
0.48012949 0.49929544 0.03226307
0.01415390 0.51460772 0.04578439
0.33704723 0.67150399 0.71358177
0.33713855 0.16251435 0.71207211
0.66676910 0.83902428 0.38665049
0.81935354 0.16030295 0.70472167
0.15464297 0.82240152 0.37044562
0.84480128 0.66540147 0.71554383
0.16816144 0.33864792 0.37681266
0.99309423 0.00606853 0.03345458
0.67019030 0.34120498 0.37161144
0.51256440 0.00501395 0.05385422
0.48396218 0.48890209 0.03478861
0.00842529 0.51446052 0.04388348
0.32368576 0.67283129 0.71104318
0.34061533 0.17681753 0.70243996
0.67104962 0.84102714 0.39215184
0.81887777 0.15783850 0.70931432
0.15139762 0.83951292 0.37213967
0.85940202 0.68423101 0.71559956
0.17894185 0.34277794 0.38093197
0.99955299 0.00417380 0.03156858
0.66252152 0.34015781 0.36592958
0.51059783 0.00044518 0.05951410
0.48498649 0.48690679 0.04027770
0.00636253 0.50746323 0.03592565
0.31778360 0.66287358 0.70303125
0.34572409 0.18426775 0.70357642
0.67523726 0.84520970 0.38497122
0.82382239 0.16116300 0.70750899
0.14710674 0.83912464 0.37906144
0.85827760 0.68582271 0.71193361
0.18706725 0.33605151 0.38759806
0.99679352 0.99859278 0.03672915
0.65656447 0.32487908 0.36190082
0.51708982 0.00492995 0.05236610
0.48101986 0.49832734 0.04158250
0.00923301 0.50630120 0.02760112
0.32067017 0.65685869 0.70179866
0.33889066 0.17681671 0.71198141
0.67930185 0.84544467 0.37172638
0.83153492 0.16899608 0.70686779
0.14654376 0.82473809 0.38087507
0.84724136 0.66710983 0.71014193
0.18594982 0.32417561 0.38835095
0.98772394 0.99367079 0.04096712
0.66618995 0.32050825 0.36763884
0.52117424 0.00690410 0.03957951
0.47947800 0.50413167 0.03607292
0.01050844 0.51257147 0.02600947
0.31949837 0.65593341 0.70575538
0.32819793 0.16467622 0.71411832
0.68013006 0.84310173 0.36633359
0.82567496 0.16616724 0.70798176
0.15457507 0.82131547 0.37177260
0.84132380 0.64802027 0.71071021
0.18379447 0.32476592 0.38229475
0.98229557 0.98693185 0.04186881
0.66684890 0.32557614 0.37299054
0.51749599 0.00379181 0.04018706
0.48361590 0.49679948 0.03388037
0.00673739 0.52070205 0.03368013
0.32131972 0.66725009 0.70496344
0.32625725 0.16160858 0.71123759
0.67997614 0.84071828 0.37179889
0.81599441 0.16001419 0.71330293
0.16152667 0.82980694 0.36607231
0.84284000 0.64687752 0.71491017
0.18793711 0.34357739 0.37546324
0.98302986 0.98535901 0.03570877
0.65882115 0.33067776 0.37395763
0.51470600 0.00528190 0.04963607
0.48350894 0.48316651 0.03831804
0.00508256 0.51839999 0.03845950
0.32902335 0.67235295 0.70258465
0.33158049 0.17156227 0.70743961
0.67960492 0.83740519 0.37703072
0.81680116 0.15704646 0.71743135
0.15995566 0.83872792 0.36865891
0.84798146 0.66644969 0.71493955
0.19289406 0.35721617 0.36861663
0.98742696 0.98694556 0.03219012
0.66031748 0.33043965 0.37011822
0.50680837 0.00359665 0.05278001
0.47859772 0.47843183 0.04662846
0.00600204 0.50791428 0.04038522
0.33640149 0.66233900 0.70236504
0.34014813 0.18172455 0.70903676
0.67489405 0.83783165 0.37692124
0.82232232 0.15654640 0.71241874
0.15972718 0.83815070 0.37334576
0.84401233 0.68313076 0.71024442
0.18562243 0.34707704 0.36794438
0.99254149 0.99068387 0.03614148
0.67008551 0.32467030 0.36971453
0.50032663 0.00381027 0.04211800
0.47944383 0.48572127 0.04844969
0.00896606 0.49952450 0.03970318
0.33723636 0.65665183 0.70342211
0.34119371 0.18131130 0.71380635
0.67001978 0.84188982 0.37485980
0.82713120 0.16141812 0.70559504
0.16566817 0.82863941 0.37301286
0.83153195 0.68065498 0.70806065
0.17083291 0.32882807 0.37485838
0.99556892 0.99852910 0.04264020
0.67534728 0.32483775 0.37166224
0.49641283 0.00427334 0.03334960
0.48864911 0.49607822 0.04076110
0.01004548 0.50032790 0.04081193
0.33158161 0.66178907 0.70766263
0.33400514 0.16968315 0.71067019
0.67266298 0.84512066 0.37721758
0.82882009 0.16585123 0.70481725
0.17232592 0.82430116 0.36935969
0.82435385 0.67189993 0.71179930
0.16589409 0.32849893 0.37904109
0.99757856 0.00038469 0.04527849
0.66868151 0.33199963 0.37025724
0.49363990 0.00407943 0.03669400
0.49791036 0.49360865 0.04170911
0.00506703 0.50595487 0.04677770
0.32666399 0.66976632 0.70990842
0.33461425 0.16310045 0.70525482
0.67876227 0.84548063 0.38114096
0.82754794 0.16273280 0.71117411
0.17302879 0.83175879 0.37241109
0.82494154 0.66863492 0.71354102
0.16929565 0.34199019 0.37768809
0.99551352 0.99495695 0.04198865
0.66005599 0.33520774 0.36983412
0.49682069 0.00515138 0.04020427
0.50426100 0.49176890 0.04480360
0.00121731 0.50295774 0.04757505
0.32845252 0.66906260 0.70784059
0.33660695 0.16814126 0.70748637
0.68117841 0.84508393 0.37628334
0.83076539 0.15716438 0.71384515
0.16707888 0.84104648 0.37987709
0.82950656 0.67395634 0.70500811
0.16704901 0.34504555 0.37361466
0.99764562 0.99289633 0.04151113
0.66118478 0.33402456 0.37237800
0.50013328 0.00320881 0.03937955
0.50736082 0.49940626 0.04286020
0.00240862 0.49602337 0.04420190
0.33466532 0.65976777 0.70532298
0.33967439 0.17452175 0.71007304
0.67481818 0.84302508 0.36700637
0.83792799 0.15991206 0.70649520
0.16671899 0.84175326 0.38413830
0.83078192 0.67696152 0.69804981
0.15876570 0.33280350 0.37221955
0.00167640 0.99521937 0.04273035
0.66871873 0.33273518 0.37768252
0.50048050 0.00016953 0.03620899
0.50790527 0.50416260 0.03800281
0.00108646 0.49525856 0.04331455
0.33575522 0.65783232 0.70831198
0.34183248 0.17373310 0.70893387
0.66226831 0.83442576 0.36533138
0.84315281 0.17004948 0.69895164
0.17232041 0.83261897 0.38391204
0.82931104 0.67262074 0.70102938
0.15447789 0.32223164 0.37409288
0.00022619 0.99785963 0.03997022
0.67487138 0.33672348 0.38053454
0.49790545 0.99743293 0.03642640
0.50868140 0.50344629 0.03536941
0.99820650 0.49826022 0.04516345
0.32858417 0.66331804 0.71185069
0.33747929 0.16638554 0.70632800
0.65626583 0.82422642 0.37222980
0.84100628 0.17568504 0.70055992
0.17351576 0.82817235 0.38043738
0.83076438 0.66861020 0.70691777
0.15601075 0.32485370 0.37186306
0.99798175 0.99725097 0.03855249
0.67235798 0.33959398 0.37863711
0.49487028 0.99831267 0.04121317
0.50936673 0.50018377 0.04066297
0.99940857 0.50055757 0.04602669
0.32781945 0.66910941 0.70951088
0.33241708 0.15986321 0.70389555
0.66148848 0.82473133 0.38022593
0.83753733 0.17398220 0.70707453
0.16981209 0.83438327 0.38011490
0.83486627 0.66604268 0.70745994
0.15865862 0.33793683 0.36721485
0.99936627 0.99697130 0.04020326
0.66553118 0.33557043 0.37775038
0.49517516 0.99994664 0.04330404
0.50900226 0.49893638 0.04615681
0.00217892 0.49741961 0.04008182
0.33539709 0.66935949 0.70750891
0.33187001 0.16163574 0.70235150
0.66634509 0.83171090 0.38019391
0.84140725 0.17089938 0.71075228
0.16884549 0.84312749 0.37940690
0.83555687 0.66555915 0.70327161
0.15703069 0.34220717 0.36773639
0.00560992 0.00306757 0.04474815
0.66468390 0.33220595 0.37837626
0.49594030 0.99835552 0.04129867
0.50582321 0.50016863 0.04508928
0.00310526 0.49148059 0.03338629
0.33896179 0.66478652 0.71036429
0.33298178 0.16347921 0.70502594
0.66210539 0.83284256 0.37484876
0.84553415 0.17134372 0.70953782
0.17307270 0.84159035 0.37722102
0.83167196 0.66649114 0.70224679
0.15303738 0.33144546 0.37294413
0.01063274 0.00936180 0.04804668
0.66885346 0.33466571 0.37785965
0.49476761 0.99736816 0.03725967
0.50674043 0.50282799 0.04135856
0.00127201 0.49080646 0.03184048
0.33340893 0.66778544 0.71400167
0.33396590 0.16068054 0.70890828
0.65352222 0.82706353 0.37273587
0.84428595 0.17585584 0.70916664
0.17946462 0.83307661 0.37538682
0.82566800 0.66474094 0.70631277
0.15288635 0.32081050 0.37792115
0.00801718 0.00916917 0.04580532
0.67063579 0.34031833 0.37741399
0.49589466 0.00194501 0.03623461
0.50986508 0.50642056 0.04108375
0.99713248 0.49604457 0.03628383
0.32715846 0.67344457 0.71491834
0.33236435 0.15699380 0.70794598
0.65576925 0.82406836 0.37389137
0.84156149 0.17889207 0.71375267
0.18064078 0.83470383 0.37330178
0.82389843 0.66232745 0.70908232
0.15873840 0.32150807 0.37584100
0.00038877 0.00341248 0.04312666
0.66700911 0.34087887 0.37789908
0.50025033 0.00874452 0.04146788
0.50731716 0.50607783 0.04342408
0.99483147 0.49991984 0.04209248
0.32845857 0.67192912 0.71310983
0.32756677 0.15660256 0.70713359
0.66804272 0.82896066 0.37360850
0.84046376 0.17538250 0.71752589
0.17459341 0.84408936 0.37251614
0.82939173 0.66389659 0.70949086
0.16384684 0.32942518 0.37108728
0.99672709 0.99883817 0.04325202
0.66400347 0.33427098 0.37959934
0.49922642 0.00561720 0.04530962
0.50478044 0.50631706 0.04352576
0.99725589 0.50116114 0.04024807
0.33690017 0.66959086 0.71022030
0.32423379 0.16086856 0.70902697
0.67133884 0.83612743 0.37198071
0.84218285 0.16944827 0.71343296
0.17020280 0.84512407 0.37170584
0.83227720 0.66198540 0.70952776
0.16725163 0.33704260 0.37034159
0.99902938 0.00313651 0.04520323
0.66349933 0.32739661 0.37940713
0.49669403 0.99386299 0.04330743
0.50669165 0.51008441 0.04020883
0.99901527 0.49777824 0.03437365
0.34462668 0.66904872 0.70897984
0.32334830 0.16399178 0.71157550
0.66460090 0.83690880 0.37109322
0.84332753 0.16778222 0.70512251
0.17294815 0.83742807 0.36814755
0.83061759 0.65578216 0.71037743
0.17138330 0.33635986 0.37335584
0.00412266 0.00808364 0.04524712
0.66410973 0.32748654 0.37259082
0.49722915 0.98929587 0.03881509
0.50878417 0.51051448 0.03693633
0.99406881 0.49599067 0.03742424
0.34343891 0.67216162 0.70874780
0.32596551 0.16630549 0.71157467
0.65937012 0.82701633 0.37441565
0.83463027 0.16924185 0.70280898
0.17351009 0.82687674 0.36627698
0.82896416 0.65519810 0.71034364
0.17709918 0.33309679 0.37674789
0.00501024 0.00477617 0.04305511
0.66764540 0.33275346 0.36633099
0.50314312 0.99740670 0.03587173
0.50718214 0.50825024 0.03826969
0.99003543 0.49988438 0.04530970
0.33573808 0.67489468 0.70644503
0.32991854 0.17045535 0.70626786
0.66543279 0.82202427 0.37929965
0.81945069 0.16629091 0.70923187
0.16690362 0.82214925 0.36710700
0.82785846 0.66214890 0.70997252
0.18172539 0.33456155 0.37862943
0.00215686 0.00200206 0.04407417
0.67057642 0.33415679 0.36814889
0.50764897 0.00510851 0.03878031
0.49867228 0.50407252 0.04337838
0.99593966 0.50307287 0.04941489
0.33273394 0.67045721 0.70548444
0.32928639 0.17191059 0.70341691
0.67855983 0.83447489 0.37843482
0.81354208 0.15958437 0.71290606
0.15946026 0.82532518 0.37110797
0.83406804 0.66927315 0.71336660
0.18138538 0.34122232 0.37963735
0.00046538 0.00241595 0.04358192
0.67510273 0.33616158 0.37458627
0.50211246 0.00027895 0.04372655
0.48987966 0.49694933 0.04381269
0.00125535 0.50448676 0.05035880
0.33903770 0.66445105 0.70599454
0.32927705 0.17189479 0.71059993
0.67422862 0.84458979 0.37258465
0.82233927 0.15524147 0.70524895
0.15777576 0.82814079 0.37537991
0.83746719 0.66890503 0.71356378
0.17857451 0.34505513 0.38080818
0.00171300 0.00628880 0.03853266
0.68009454 0.33937622 0.37846660
0.49410797 0.99002529 0.04360867
0.48879725 0.49170046 0.03747498
0.99761772 0.49959097 0.05096816
0.34371591 0.66467389 0.70186283
0.33196318 0.16940760 0.72061837
0.66229880 0.83867740 0.36959315
0.83064427 0.15514621 0.69424493
0.15773004 0.82528365 0.37381086
0.83463398 0.66703962 0.70803081
0.17932484 0.33646872 0.37913055
0.00571578 0.00568904 0.03544730
0.67809292 0.34454417 0.37762591
0.49050289 0.98942820 0.04075075
0.48862042 0.49131795 0.03473598
0.99231444 0.49724546 0.05209083
0.33521034 0.67067229 0.69715332
0.33906482 0.16473183 0.71870086
0.66483813 0.82989556 0.37364003
0.82315171 0.15558845 0.69267873
0.15769656 0.82159548 0.37462556
0.83977333 0.67260517 0.70601899
0.18019932 0.32703142 0.37672704
0.00820410 0.99951647 0.03467103
0.66958573 0.34721499 0.37856098
0.49655326 0.00089585 0.04093461
0.48218077 0.49078029 0.04001863
0.99680376 0.50593159 0.04980407
0.32633911 0.67452711 0.70026717
0.34389089 0.16980263 0.70598092
0.68097946 0.83835504 0.37947014
0.80753886 0.15375861 0.70273383
0.16453598 0.82923535 0.37769182
0.84741990 0.68138946 0.70664005
0.18181644 0.33222398 0.37227632
0.00434740 0.99579204 0.03655584
0.66004795 0.33526131 0.37847728
0.51400285 0.01138845 0.04770931
0.47476311 0.49165738 0.04678989
0.01175395 0.51431586 0.04468001
0.33350769 0.66806716 0.70686788
0.33711250 0.18445565 0.70300238
0.69029238 0.85549470 0.38249140
0.80579714 0.15012300 0.70894551
0.16947760 0.84213237 0.37759112
0.85335906 0.68401345 0.70650856
0.17966810 0.33816857 0.37344878
0.99691839 0.99747178 0.03683309
0.65735595 0.32074353 0.37341111
0.52234334 0.00612813 0.05606988
0.47658123 0.49292151 0.04538781
0.01947795 0.51323522 0.03904863
0.33698665 0.65664732 0.70914828
0.33534908 0.18449427 0.71252497
0.67662383 0.85802403 0.38234426
0.81318611 0.14810321 0.70114402
0.16047734 0.83607593 0.37482084
0.85183976 0.66927014 0.70489690
0.17677335 0.33520266 0.37804945
0.98900440 0.99887360 0.03541581
0.66386359 0.32306946 0.36637196
0.51507865 0.99362702 0.05533984
0.48572436 0.49212818 0.03904565
0.01138398 0.50391160 0.03629962
0.32813674 0.65232538 0.70667212
0.34478833 0.17454678 0.71657499
0.65504025 0.83954124 0.37529848
0.81640333 0.15386686 0.69706643
0.14891402 0.82678379 0.37160981
0.84826084 0.65665620 0.70596952
0.17819119 0.32527144 0.38136120
0.99100847 0.99195266 0.03074275
0.66386983 0.33590431 0.36301617
0.51026461 0.99528779 0.04453230
0.49118922 0.49154433 0.03707791
0.00152368 0.50097952 0.03903443
0.32106330 0.65706943 0.70776236
0.34841182 0.17144329 0.71210308
0.65884224 0.83199353 0.37088135
0.81517023 0.16694858 0.70720692
0.14551824 0.82446081 0.37633864
0.84991058 0.66767907 0.71239318
0.17573821 0.31822055 0.38131918
0.99883311 0.98597870 0.02980880
0.65951190 0.34343337 0.36746414
0.52311971 0.01172951 0.03680439
0.48918274 0.49694994 0.04069647
0.99983093 0.50788668 0.04188192
0.32187742 0.66031892 0.71003526
0.34517212 0.17960552 0.71011841
0.67539102 0.84746790 0.36813227
0.81563194 0.17044554 0.72086059
0.15201210 0.82375183 0.38025896
0.85887971 0.68670116 0.71609166
0.16649745 0.32650276 0.38064408
0.00169739 0.98969460 0.03520342
0.65330807 0.33361370 0.37562488
0.53996331 0.01833063 0.04246936
0.48606066 0.50377407 0.04210870
0.00796673 0.51475759 0.04308070
0.32755479 0.65403373 0.70850345
0.33896337 0.18527528 0.71233600
0.68191050 0.86115218 0.37202768
0.82781329 0.16041266 0.72280041
0.16129785 0.82726108 0.37872688
0.86546450 0.68780977 0.72177906
0.16073730 0.33729858 0.37965327
0.99766854 0.99649351 0.04072465
0.64836841 0.32543056 0.37793980
0.52772599 0.00893699 0.04296808
0.48872148 0.49794744 0.03415117
0.01200267 0.50865754 0.03908427
0.32788560 0.64676849 0.70775154
0.33917787 0.17632948 0.71485723
0.67069452 0.85255840 0.37325773
0.83953704 0.16238010 0.71575038
0.16343478 0.82547732 0.37631383
0.86218115 0.67103029 0.72264258
0.16135730 0.34439551 0.37587702
0.99015358 0.99526929 0.04220006
0.65613921 0.33233658 0.37650162
0.50874766 0.00831306 0.03839647
0.49365868 0.48956730 0.03384816
0.00450045 0.49780268 0.03345314
0.31784441 0.65083162 0.71055981
0.34497182 0.16762388 0.71010797
0.65689314 0.83075421 0.37133296
0.83995676 0.16865862 0.71209353
0.16126832 0.82181307 0.37378235
0.84651652 0.66522083 0.71250875
0.17075374 0.34860399 0.37285671
0.98860904 0.98941691 0.03936597
0.66112645 0.34032920 0.36969551
0.50435720 0.01528769 0.03553300
0.49354797 0.49219603 0.04621845
0.00273437 0.50288763 0.03324257
0.31889701 0.66190476 0.71028400
0.34187207 0.16880091 0.70038323
0.66238678 0.82673713 0.37315417
0.83936264 0.17135583 0.71440453
0.16086919 0.82871800 0.37110646
0.82712654 0.66811222 0.70024277
0.17357630 0.34096892 0.37501778
0.99833603 0.99264575 0.04015002
0.65632358 0.33086063 0.36763419
0.50745663 0.01382785 0.03401388
0.49008024 0.49036207 0.05099986
0.00739641 0.51650918 0.03710216
0.32543462 0.66245584 0.71355760
0.33155249 0.17571065 0.69900249
0.67792744 0.84055290 0.37286563
0.84189682 0.17156940 0.71784810
0.16661533 0.83505828 0.36866572
0.82327018 0.66838740 0.69614876
0.16793835 0.33426686 0.37439014
0.00626241 0.99961015 0.04375587
0.65482228 0.31753524 0.37170749
0.50703737 0.99808469 0.03680237
0.49224283 0.48841925 0.04822361
0.00921767 0.51685175 0.04098488
0.33023906 0.65906956 0.71625323
0.32625931 0.17620657 0.70660881
0.68399939 0.84477918 0.37193611
0.84168068 0.16727095 0.71604503
0.17070600 0.83783618 0.37156231
0.82972582 0.66512192 0.70154501
0.16620735 0.33847929 0.37225607
0.00906780 0.00432633 0.04395341
0.65857903 0.31792013 0.37680849
0.49874896 0.98901500 0.04039960
0.50459993 0.49031915 0.04558829
0.99963663 0.50210199 0.03921895
0.33401742 0.66314851 0.71076827
0.32810841 0.16500642 0.71174430
0.67718371 0.83377952 0.37191162
0.83980633 0.16464945 0.70724643
0.16629694 0.83580554 0.37808058
0.83535160 0.66238964 0.70981701
0.16586559 0.34090077 0.37062030
0.00733455 0.00354287 0.04118803
0.66983524 0.33450839 0.37710787
0.48883603 0.99496439 0.03998239
0.51391627 0.49986797 0.04831658
0.98747948 0.49297653 0.04055425
0.33317713 0.66706081 0.70229729
0.33424939 0.15779392 0.70829131
0.66569636 0.82426962 0.37453374
0.83739035 0.16636500 0.70038837
0.16795056 0.83079711 0.37870546
0.83200786 0.66320229 0.71339279
0.16615101 0.33696066 0.37046997
0.00496527 0.99997592 0.04043849
0.67671683 0.34338842 0.37448662
0.48421240 0.00420638 0.03908421
0.51003767 0.50807404 0.05273662
0.99063445 0.50102393 0.04613370
0.33206652 0.66640303 0.69946750
0.33692086 0.16442860 0.70246922
0.66806035 0.82933518 0.38295727
0.83773096 0.16739827 0.70347634
0.17243915 0.83476434 0.37824535
0.82354263 0.66851920 0.70960071
0.16462567 0.32991982 0.37382263
0.00509234 0.00029603 0.04341010
0.66942310 0.33471781 0.37275993
0.48639262 0.00602789 0.03776683
0.50270110 0.50631003 0.04918317
0.00071039 0.50956181 0.04517544
0.33557754 0.66524875 0.70447610
0.33155828 0.16636058 0.70324032
0.67324606 0.83771679 0.38571538
0.84008098 0.16609522 0.70908796
0.17433937 0.83765138 0.37866083
0.81875087 0.67072295 0.70487374
0.15978361 0.33028693 0.37546086
0.00652404 0.00649467 0.04615904
0.66232458 0.32420949 0.37313187
0.49020126 0.99932344 0.03937134
0.50276085 0.50122096 0.04034795
0.00762718 0.50888211 0.04244809
0.33776422 0.66765132 0.71170503
0.32925366 0.16100854 0.70777506
0.67152402 0.83347679 0.37986445
0.83921994 0.16431971 0.70967126
0.17785653 0.83717609 0.37968978
0.82027634 0.66676255 0.70513409
0.16022731 0.33732724 0.37241896
0.00199290 0.00755899 0.04447196
0.66607838 0.33287059 0.37477294
0.49120457 0.99686290 0.04110992
0.51078858 0.50127590 0.03565539
0.00548457 0.49991702 0.04175079
0.33773494 0.67349467 0.71269704
0.33376858 0.16145179 0.70877643
0.66597424 0.82323060 0.37155395
0.83808379 0.16478498 0.70742323
0.17864344 0.83892863 0.37899911
0.82536895 0.66415613 0.70505606
0.16288031 0.33870212 0.36833747
0.99466501 0.99973070 0.04271569
0.67408907 0.34638738 0.37759243
0.48906532 0.00141388 0.04048879
0.51755099 0.50596911 0.03559310
0.99971590 0.49297332 0.04211869
0.33742124 0.67594985 0.70899211
0.33723350 0.16611411 0.70719619
0.66037116 0.82274284 0.36737153
0.84011380 0.16887347 0.70777022
0.17709849 0.83966650 0.37554605
0.82995400 0.66671001 0.70200789
0.16051544 0.32992386 0.36724468
0.99278525 0.99643099 0.04350684
0.67634358 0.34258331 0.38000762
0.48847808 0.00142418 0.03990648
0.51356267 0.51072342 0.03897611
0.99962598 0.49475084 0.04307258
0.33603671 0.66927097 0.70895568
0.33519065 0.16973167 0.70540606
0.66130386 0.82981512 0.37097516
0.84234007 0.17215106 0.71095179
0.17382041 0.83971023 0.37361936
0.82996177 0.66991997 0.69979786
0.15846374 0.32005145 0.37156689
0.99588500 0.00034438 0.04426176
0.67053298 0.33070637 0.38150144
0.49305854 0.99736756 0.04029106
0.50706749 0.50993583 0.04161447
0.00009495 0.49600458 0.04196555
0.33692361 0.66356078 0.71365332
0.32982310 0.16721267 0.70710553
0.66524284 0.83509305 0.37253743
0.84310382 0.17438375 0.71358648
0.17130668 0.83856122 0.37484187
0.82966040 0.66980260 0.70325736
0.16058775 0.32391781 0.37320785
0.99832097 0.00443771 0.04384453
0.66664723 0.32913637 0.37869455
0.50129514 0.99492423 0.04245116
0.50672077 0.50629449 0.04009147
0.99761782 0.48782840 0.03910878
0.33562967 0.66812926 0.71484427
0.32887278 0.15986247 0.70986702
0.66399654 0.83343119 0.37005665
0.84047133 0.17758827 0.71187352
0.17102046 0.83781643 0.37566083
0.83370803 0.66477800 0.71076060
0.16350527 0.33517151 0.37217547
0.99898775 0.00377577 0.04293008
0.66743470 0.33797475 0.37431602
0.50194306 0.99409081 0.04288739
0.50935206 0.50603334 0.03964073
0.99319637 0.48145517 0.03668796
0.33197360 0.67241724 0.71070333
0.33242080 0.15763046 0.70887746
0.65874181 0.82860516 0.37176333
0.83681793 0.17928127 0.70725856
0.17155355 0.84043936 0.37432514
0.83933975 0.66062162 0.71355154
0.16401898 0.33443744 0.37564003
0.00062037 0.00146217 0.04200491
0.66894262 0.34590661 0.37114154
0.49927037 0.99774060 0.04091449
0.50676262 0.50753518 0.04203638
0.99164462 0.48616158 0.03544092
0.33259009 0.66731950 0.70783457
0.33222967 0.16224462 0.70766960
0.65552687 0.83013599 0.37596402
0.83818370 0.17737368 0.70571983
0.17087986 0.83997860 0.37220675
0.84297662 0.66612417 0.71156303
0.16374690 0.32831052 0.37914250
0.00326225 0.00015161 0.04258211
0.66966396 0.34232636 0.36820652
0.50360686 0.00284262 0.04167213
0.49597016 0.50381820 0.04391132
0.99725764 0.49686872 0.03780355
0.33341372 0.66030797 0.71050806
0.33141065 0.16542764 0.70698486
0.65979545 0.83396367 0.37909554
0.83979795 0.17129583 0.70794362
0.16816638 0.83547334 0.37141711
0.83777370 0.67380419 0.70849358
0.16704135 0.33121653 0.38097038
0.00394717 0.00251276 0.04417430
0.66276447 0.33216894 0.36801021
0.50891480 0.00364991 0.04478758
0.48970314 0.49514012 0.04266647
0.00074386 0.50290815 0.04089612
0.33295936 0.66277728 0.71226811
0.33269391 0.16317591 0.70867971
0.66873909 0.83340980 0.37607823
0.83676488 0.16542903 0.70907642
0.16454040 0.83223774 0.37199179
0.83120379 0.67232758 0.70916688
0.17107298 0.34169849 0.37987554
0.00322631 0.00538113 0.04263245
0.65634446 0.32764588 0.37076784
0.50853248 0.00103881 0.04605578
0.49540688 0.48962753 0.03920224
0.99704445 0.50012423 0.04262426
0.33407076 0.67293286 0.70864034
0.33330018 0.16336597 0.71108981
0.67278489 0.83117289 0.37067585
0.83075900 0.16288545 0.70547405
0.16340590 0.83525558 0.37137263
0.83364021 0.66449290 0.71344346
0.17464423 0.34884001 0.37449220
0.00304180 0.00054366 0.03861298
0.66192946 0.33469303 0.37492386
0.50255045 0.99889646 0.04362839
0.50294296 0.49145424 0.03732568
0.99587135 0.49714700 0.04314881
0.33691815 0.67840384 0.70195772
0.33402804 0.17205187 0.71009315
0.66993430 0.83342023 0.37359833
0.82535491 0.15982949 0.69990471
0.16454578 0.84065108 0.36948718
0.83919908 0.66121371 0.71398376
0.17675845 0.34396013 0.37325665
0.00467853 0.99380898 0.03808938
0.66952020 0.34006659 0.38083244
0.50010185 0.00259632 0.03940036
0.50318646 0.49281095 0.03785128
0.99980436 0.50098814 0.04322004
0.34067848 0.67169824 0.69770414
0.33459071 0.17737378 0.70830553
0.66812829 0.84213429 0.38017891
0.82548909 0.15608377 0.69835930
0.16286962 0.83552965 0.36841909
0.84078468 0.66756884 0.71069211
0.17102493 0.33387629 0.37561936
0.00211232 0.99294381 0.04180528
0.66933028 0.33411327 0.38087443
0.50539723 0.00431215 0.03707121
0.49358918 0.49243566 0.04020346
0.00403724 0.50704720 0.04614471
0.33904866 0.66116916 0.70357441
0.33585795 0.17324657 0.70662037
0.67053862 0.84896579 0.38505924
0.82456142 0.15542232 0.70150103
0.15694201 0.82634405 0.37119029
0.83554257 0.67137203 0.70776423
0.16813790 0.33095512 0.38034217
0.99863026 0.99895412 0.04276256
0.66651094 0.32536001 0.37581584
0.51165021 0.00094382 0.03950421
0.48511183 0.49277352 0.04205863
0.00349956 0.50566513 0.04777909
0.33184778 0.66397375 0.71276553
0.33607250 0.16898358 0.70667368
0.67384708 0.84391955 0.38092770
0.81943083 0.16161877 0.70650409
0.14960241 0.82289098 0.37697461
0.83089671 0.66438338 0.70780755
0.17431156 0.33734939 0.38188358
0.00034999 0.00621844 0.03969072
0.66779511 0.32435849 0.37190284
0.51480938 0.99987640 0.04484827
0.48544462 0.49435922 0.03951298
0.99726270 0.49933839 0.04758839
0.33211669 0.67401472 0.70945644
0.33207609 0.17211043 0.71004974
0.67296275 0.83709161 0.37025167
0.81646500 0.16605289 0.70572910
0.14761618 0.82277977 0.38070445
0.83747002 0.65849771 0.70823786
0.17797828 0.34105203 0.37569815
0.00462835 0.00551971 0.03387562
0.67416838 0.32925411 0.37363497
0.51377324 0.00242416 0.04854879
0.48935387 0.49932641 0.03327174
0.99372660 0.50136606 0.04915744
0.33925981 0.67483950 0.69694599
0.33395020 0.18654151 0.71133611
0.67292981 0.83873431 0.36803662
0.81729734 0.16117245 0.70100465
0.15257418 0.82522582 0.38137442
0.84589664 0.66234865 0.70621146
0.18133152 0.33618558 0.37174652
0.00108859 0.99408691 0.03183350
0.67830430 0.33461620 0.37952306
0.51034011 0.00786333 0.05045776
0.48959451 0.50049745 0.03137261
0.00212722 0.51265446 0.04876082
0.34000145 0.66741827 0.69192636
0.33964083 0.19561668 0.71461510
0.67589150 0.84405660 0.37103626
0.81774423 0.15173534 0.70409774
0.15924237 0.82736472 0.38063568
0.84568738 0.67190629 0.70424745
0.17847213 0.32606312 0.37431548
0.98804058 0.98514148 0.03577138
0.68091442 0.33828472 0.37971534
0.50922733 0.00928264 0.05061313
0.48510621 0.49611191 0.03824190
0.01605856 0.51853601 0.04564746
0.32998071 0.66428664 0.70068441
0.33887856 0.18334698 0.72119706
0.68019727 0.83897875 0.37042037
0.81749714 0.15140726 0.71268982
0.16000837 0.82383583 0.38022998
0.83656701 0.67231577 0.70354518
0.16986134 0.32411939 0.37901181
0.98099942 0.98480998 0.04057304
0.68028436 0.33868773 0.37398817
0.50858430 0.00356700 0.04777004
0.48572644 0.49389344 0.04531116
0.01760446 0.51766214 0.03979225
0.32465920 0.67370931 0.70910316
0.33584318 0.17136141 0.72109307
0.67982589 0.83066478 0.36936124
0.81950665 0.16511488 0.71616409
0.15706915 0.81724834 0.37952751
0.82777087 0.66406687 0.70674499
0.17594642 0.33248309 0.37539874
0.98718132 0.98626772 0.04200904
0.67086368 0.33114946 0.36656659
0.50243970 0.99963598 0.04464432
0.49697223 0.49555483 0.04578496
0.00789911 0.51628806 0.03466677
0.32793811 0.68137330 0.70967114
0.33346894 0.16957102 0.71164338
0.67580685 0.83104739 0.37086341
0.82442342 0.17317256 0.71119981
0.15819737 0.81676600 0.37866433
0.83981667 0.66642893 0.71051371
0.18259359 0.33522088 0.36704781
0.99359509 0.99041882 0.04037121
0.66281230 0.32041167 0.36143168
0.49115017 0.99904604 0.04094478
0.50715494 0.50483822 0.04885453
0.00839140 0.51883415 0.03613705
0.32797210 0.67287560 0.70860064
0.33698557 0.17748908 0.70625882
0.66833353 0.83545846 0.37680007
0.82916906 0.16594088 0.70894484
0.17086740 0.82854690 0.38012630
0.85764896 0.67918890 0.70689518
0.17504348 0.32123162 0.36994279
0.99923219 0.99721333 0.03842074
0.65862116 0.31764870 0.36379451
0.48394251 0.00046634 0.03430559
0.50386135 0.51039678 0.05402873
0.01802389 0.52344965 0.03627374
0.32243216 0.65607085 0.71126234
0.34278624 0.18468607 0.70680154
0.66127272 0.83999288 0.37811850
0.83900729 0.16526321 0.71231937
0.17982618 0.83365822 0.38210686
0.84971544 0.67888984 0.70017864
0.16316238 0.31226751 0.37625549
0.00160497 0.00470005 0.04227067
0.66174659 0.32313469 0.36812049
0.49608830 0.00269320 0.03406254
0.49283252 0.50510783 0.05251425
0.01912185 0.51961706 0.03419821
0.31874235 0.64419918 0.71389655
0.33851895 0.17696075 0.70793602
0.66138667 0.84193215 0.37040803
0.85055252 0.18153152 0.71514779
0.17663292 0.82970882 0.37982922
0.83073908 0.66931095 0.70433689
0.15592736 0.31467792 0.37599266
0.00324722 0.00564084 0.04598202
0.67459227 0.33108293 0.36907005
0.50677162 0.00040422 0.03757248
0.49206544 0.49563156 0.04647228
0.00511100 0.50989463 0.03339850
0.31825907 0.65090770 0.71252759
0.32775661 0.16287413 0.70750389
0.66163178 0.83334162 0.36339786
0.85175702 0.19648192 0.71560526
0.16988721 0.83190807 0.37843382
0.81470805 0.66098695 0.71937531
0.16177539 0.32504282 0.36956196
0.00583238 0.00291407 0.04029707
0.67830343 0.33664713 0.37020013
0.50066941 0.99444831 0.04034500
0.49438351 0.49001170 0.04327546
0.99001410 0.50087198 0.03602741
0.32448456 0.66903424 0.70484846
0.32046744 0.15712371 0.70687733
0.66253176 0.82647801 0.36386886
0.84870811 0.19476491 0.71484326
0.16282511 0.83279584 0.38125678
0.81157532 0.66156563 0.72728276
0.16574133 0.33227163 0.36981141
0.00036545 0.00339049 0.03248783
0.67463838 0.33800512 0.37189811
0.49623768 0.98838723 0.04052045
0.49602398 0.49606543 0.04313431
0.98823624 0.49658139 0.04226851
0.33633534 0.67492102 0.70121640
0.33058929 0.15639095 0.70436582
0.66379949 0.82785164 0.37126735
0.84708108 0.17294253 0.71148282
0.16271356 0.83495932 0.38119470
0.82525570 0.66113739 0.72029599
0.15614202 0.33102340 0.37825512
0.99488584 0.00478706 0.02925633
0.66962068 0.33577584 0.37232562
0.49841611 0.98992304 0.03714993
0.50156729 0.50244351 0.04619185
0.99604632 0.50311291 0.04403655
0.34576049 0.66493278 0.70583149
0.34664444 0.16652780 0.70693745
0.66110511 0.83065571 0.37985331
0.84449424 0.15467638 0.71478989
0.17030959 0.83597607 0.37659839
0.83356241 0.66246304 0.71073391
0.14397847 0.33337195 0.38268561
0.99826044 0.00887820 0.03372501
0.66907815 0.33961520 0.37263067
0.50094740 0.99951756 0.03400517
0.51088434 0.50146238 0.04668332
0.99954002 0.50771396 0.03890871
0.34427627 0.65628766 0.70685963
0.35055896 0.17267127 0.70858055
0.66304613 0.83384529 0.38032603
0.83765820 0.15570181 0.72074248
0.17619501 0.83469351 0.37467102
0.82725708 0.66857655 0.70750712
0.14029706 0.33699209 0.37856260
0.00958353 0.01360418 0.04335581
0.67466192 0.34624205 0.37204575
0.49565092 0.00542252 0.03627523
0.51618896 0.49806158 0.04441088
0.99494142 0.49654907 0.03668450
0.33370930 0.66301986 0.70519920
0.34393550 0.16269588 0.70506086
0.66456014 0.83076751 0.37775994
0.83186850 0.16449824 0.71739903
0.17961623 0.83822567 0.37546149
0.81931849 0.66773546 0.70534137
0.14937721 0.33623249 0.37182455
0.01598338 0.00927399 0.04591494
0.67797166 0.34800177 0.37184480
0.48126210 0.00154909 0.03933795
0.51660538 0.49813351 0.04068058
0.99429097 0.48830090 0.03930619
0.33401315 0.67950877 0.70548150
0.33062489 0.15106443 0.70378443
0.66320432 0.82867109 0.37632924
0.83695289 0.17071761 0.70798644
0.18235464 0.84599812 0.37617467
0.82016623 0.65967679 0.70283180
0.15885361 0.33388401 0.36972858
0.00830892 0.00079648 0.03993815
0.67572278 0.34178949 0.37614137
0.47398566 0.99470624 0.04130901
0.50870878 0.50126293 0.03814296
0.00134594 0.48984925 0.04671102
0.34257774 0.67530754 0.70364382
0.32626163 0.15080057 0.70641556
0.66498485 0.83354081 0.37326215
0.84355168 0.17149200 0.70173865
0.18200446 0.84965348 0.37824521
0.82720174 0.65635084 0.69892327
0.15489006 0.32965980 0.37298578
0.99747193 0.99549492 0.03788328
0.67035701 0.33397880 0.38185385
0.48101670 0.99569046 0.04152756
0.49951571 0.50239389 0.03990590
0.00371968 0.49645445 0.05033718
0.34221753 0.66115999 0.70783877
0.33405359 0.16139236 0.71065534
0.66581337 0.83177733 0.37147600
0.84034832 0.16812851 0.70506638
0.17838114 0.84644234 0.37782517
0.82679879 0.65585056 0.69855365
0.15372769 0.32939196 0.37258584
0.99466910 0.99741014 0.04209786
0.66863080 0.33698200 0.38243672
0.49203396 0.00108301 0.04156959
0.50069895 0.50532331 0.04231685
0.99758839 0.50049820 0.04389424
0.33560875 0.65967698 0.71583117
0.33838588 0.17096897 0.70985830
0.66806755 0.82673906 0.37241716
0.83395257 0.16602828 0.70903176
0.17401435 0.84221032 0.37382424
0.82259141 0.65861630 0.70444697
0.15953317 0.33178490 0.36864159
0.00048064 0.00411101 0.04853014
0.67746573 0.34773954 0.37649014
0.49814492 0.00088721 0.04594032
0.50701573 0.51163365 0.04246511
0.99634697 0.49408983 0.03475538
0.33321774 0.66635729 0.71722469
0.33018107 0.16627017 0.70517940
0.67111250 0.82413219 0.37516528
0.83279240 0.16901406 0.70459571
0.17306426 0.84513948 0.37272566
0.82369405 0.66501125 0.71144388
0.16654344 0.33030143 0.36931600
0.00560589 0.00346031 0.04864021
0.68047888 0.34427325 0.37265604
0.49642006 0.99520147 0.04982313
0.51083058 0.51491402 0.04193544
0.99841975 0.49075303 0.03407666
0.33533176 0.67296755 0.71177662
0.32266494 0.15909456 0.70451116
0.66896884 0.82360993 0.37630695
0.83798801 0.17310659 0.70145224
0.17381530 0.84790876 0.37380777
0.82788762 0.66854049 0.71157444
0.17183395 0.33056710 0.37423717
0.99770667 0.99660688 0.04367694
0.67084989 0.33022341 0.37226831
0.49426890 0.99109651 0.04649651
0.50732999 0.51133109 0.04153343
0.99912984 0.49528176 0.03901826
0.33766728 0.67404409 0.70820105
0.32610646 0.16100001 0.70725961
0.66837482 0.83066374 0.37543464
0.84252450 0.17245003 0.70513410
0.17076261 0.84092863 0.37476021
0.83607163 0.66754246 0.70628194
0.16870153 0.33276278 0.37790564
0.98493839 0.99814374 0.04176072
0.66336724 0.32619617 0.37169903
0.49941916 0.99699982 0.04058171
0.50205898 0.50558071 0.04203826
0.99872696 0.49685423 0.04065968
0.33321145 0.66772314 0.71036793
0.33490339 0.16674195 0.70927558
0.66914791 0.83554856 0.37450915
0.83838375 0.16932597 0.71138681
0.16629527 0.83046878 0.37372886
0.84162063 0.66967398 0.70774273
0.16749908 0.33433674 0.37851952
0.99069536 0.00274134 0.04173865
0.66297096 0.33462717 0.37293458
0.50426931 0.00589058 0.03845873
0.50466760 0.50332819 0.04237656
0.99405549 0.49551868 0.03913790
0.32696169 0.66349118 0.71301581
0.33346380 0.16782007 0.70787835
0.66580473 0.83305239 0.37238930
0.83392835 0.17085265 0.71227502
0.16527876 0.82611902 0.37224331
0.84070906 0.67466103 0.71149079
0.17272671 0.33500927 0.37611186
0.00454773 0.00678341 0.03991668
0.66492264 0.33775467 0.37505158
0.50610759 0.00658506 0.04208322
0.50718097 0.50353638 0.03898390
0.99086703 0.49219792 0.04049388
0.32514826 0.66354204 0.70915705
0.32521054 0.16246553 0.70659420
0.66514407 0.83376954 0.37399916
0.83266294 0.17156627 0.70623052
0.16708258 0.83025207 0.37324852
0.83990892 0.67670016 0.71074254
0.17689677 0.33418352 0.37415914
0.00650176 0.00459738 0.03603317
0.66355195 0.32806625 0.37680419
0.50460545 0.00253933 0.04256665
0.50544967 0.50267719 0.03663730
0.99408164 0.49529003 0.04518241
0.32595714 0.66337440 0.70441528
0.32529728 0.16163790 0.70993775
0.66493772 0.83590654 0.37744365
0.83283827 0.16859616 0.70297592
0.16716298 0.83342956 0.37440207
0.83962420 0.67227594 0.70837340
0.17685655 0.33536571 0.37442737
0.99750852 0.99731368 0.03467634
0.65899076 0.32004746 0.37946923
0.50501695 0.00257980 0.03695944
0.49860602 0.49845418 0.03964970
0.00259115 0.50671154 0.04889724
0.32945630 0.66366146 0.70451195
0.33339613 0.17001780 0.71490519
0.66110733 0.83603827 0.37743145
0.83542920 0.16650971 0.70607978
0.16158592 0.82803381 0.37431087
0.83959305 0.66857504 0.70591696
0.17251944 0.33724689 0.37611996
0.99095094 0.99553340 0.03983598
0.65925538 0.32423885 0.37869219
0.51113709 0.00714618 0.03431238
0.48960672 0.49051786 0.04096444
0.00437013 0.51026869 0.04653568
0.33315050 0.66463260 0.70814837
0.34289913 0.17459349 0.71465541
0.65905932 0.83509632 0.37855735
0.83148472 0.16368983 0.70720340
0.15556780 0.82242368 0.37238259
0.84123868 0.66727118 0.70817727
0.17108572 0.33720582 0.37774066
0.99811614 0.99777247 0.04524045
0.66388614 0.33484317 0.37288600
0.51053501 0.00685487 0.03741325
0.49196428 0.49081911 0.03880890
0.00038280 0.50795729 0.04094302
0.33586935 0.66825856 0.70928851
0.34473555 0.17658842 0.71055730
0.66363660 0.83603448 0.38210336
0.82340653 0.16113421 0.70479005
0.15615926 0.82492515 0.36923674
0.84073860 0.66895906 0.71207450
0.17409199 0.33629438 0.37597702
0.01230268 0.00129688 0.04494759
0.67007271 0.34120015 0.36974094
0.50653509 0.00096126 0.04382011
0.49836254 0.50031752 0.03703900
0.00506977 0.50551143 0.04242147
0.33428686 0.66810458 0.70539866
0.33777895 0.17608647 0.70868520
0.67226877 0.84236177 0.38151224
0.82022904 0.15963416 0.70276107
0.15945936 0.83097198 0.37043495
0.84158345 0.67432620 0.70765243
0.17344779 0.33338681 0.37246442
0.01389105 0.00379715 0.04070581
0.67190110 0.33622753 0.37443708
0.50638875 0.99744366 0.04705400
0.49609707 0.50236974 0.03658642
0.01124056 0.50500708 0.04833799
0.32842846 0.66454868 0.70150277
0.33501404 0.17356888 0.70898820
0.67458331 0.84484586 0.37646160
0.81972576 0.15538075 0.70430214
0.15699444 0.82914667 0.37495266
0.84463144 0.67222250 0.70120205
0.17153840 0.33556466 0.37036916
0.00156277 0.00119786 0.03832433
0.66234069 0.32690164 0.37933259
0.50716840 0.00038394 0.04351565
0.48927585 0.49084665 0.03952775
0.01111454 0.51088345 0.05104155
0.32737793 0.66501176 0.70283174
0.34080792 0.17471191 0.70877183
0.66936145 0.84229764 0.37423803
0.82431268 0.15235846 0.70875743
0.15042941 0.82148887 0.37700728
0.84430864 0.66427125 0.70081100
0.16721568 0.33672876 0.37096266
0.98979642 0.99966123 0.04053367
0.65850754 0.33030195 0.37988374
0.50961434 0.00681759 0.04255449
0.48428554 0.48038135 0.04226205
0.00594451 0.51193821 0.05086904
0.33387758 0.66570698 0.70680266
0.34654009 0.17478747 0.70577776
0.66678013 0.84186123 0.37606968
0.82863589 0.15332227 0.71121198
0.14982610 0.82122740 0.37651134
0.84176070 0.66449000 0.70758826
0.16225320 0.33013837 0.37230620
0.99405170 0.99907653 0.04357429
0.66545791 0.34337307 0.37401028
0.50927475 0.00683569 0.04428350
0.48440173 0.48257724 0.04220427
0.99952592 0.50491082 0.04632715
0.33837891 0.66581770 0.71058974
0.34321975 0.17237989 0.69945696
0.66881643 0.84231513 0.37926077
0.82985453 0.15784545 0.70865376
0.15709039 0.82874360 0.37723803
0.84076626 0.67232641 0.71182229
0.16853915 0.33101111 0.36902909
0.00554326 0.99587245 0.04341346
0.67057372 0.34778455 0.36784232
0.50457207 0.99678950 0.04505150
0.48966338 0.49592423 0.04221704
0.00153143 0.50018603 0.03909347
0.33644325 0.66373874 0.71048005
0.33324967 0.17127488 0.69787535
0.67343560 0.84334990 0.37898866
0.82981620 0.16096569 0.70743011
0.16629868 0.84127835 0.37924592
0.83588761 0.67109805 0.70405855
0.17696989 0.33468854 0.36680562
0.00470168 0.99388766 0.03898051
0.66534176 0.33484106 0.36834571
0.50321087 0.99227635 0.04461568
0.49363742 0.49963660 0.04690361
0.00968636 0.50236344 0.03161265
0.33080477 0.65866438 0.71020329
0.33210579 0.16997548 0.70511878
0.67556118 0.84164139 0.37435306
0.82873636 0.16173893 0.71080620
0.17243669 0.84889127 0.37902500
0.83280410 0.66085238 0.69813865
0.17493753 0.33547435 0.37400204
0.99373882 0.99139465 0.03679991
0.65245430 0.32120714 0.37323189
0.50266485 0.99849073 0.03977953
0.50001031 0.49409343 0.05144534
0.00897003 0.51192188 0.02582107
0.33069473 0.65974320 0.71361596
0.34030358 0.17269863 0.70995222
0.67187854 0.83568262 0.36891943
0.83427330 0.16336731 0.71500232
0.17293729 0.84960563 0.37591027
0.82650977 0.64831102 0.70296216
0.16537178 0.33795227 0.38812998
0.98845679 0.99571438 0.04027526
0.65027170 0.32397480 0.37445399
0.49827445 0.99882722 0.04041500
0.50747591 0.49804981 0.04535265
0.99688969 0.51937629 0.02556292
0.33773760 0.66091146 0.71558912
0.34432303 0.17293613 0.70701763
0.66686825 0.83407305 0.36416468
0.84017533 0.16627076 0.71897626
0.17324253 0.85206099 0.37606726
0.82461229 0.64717369 0.71791466
0.15861392 0.33640361 0.39431498
0.99438813 0.00425006 0.03956277
0.66417993 0.33204201 0.37187927
0.49297199 0.99332569 0.04590520
0.51042741 0.50529910 0.03690711
0.98783523 0.50861488 0.03224745
0.34043500 0.65937520 0.71263908
0.33802967 0.16473535 0.69814645
0.66703771 0.83611161 0.36140025
0.83516497 0.16837763 0.71714027
0.17600482 0.85079509 0.37900480
0.82802710 0.65834125 0.72460421
0.16343207 0.33198052 0.38678210
0.00591996 0.00263014 0.03189476
0.68108244 0.33797464 0.37571292
0.48715854 0.98668659 0.04549766
0.50952197 0.50556841 0.04160809
0.99205898 0.49460623 0.03928440
0.32974601 0.65950212 0.70368305
0.32760549 0.16033344 0.69251528
0.67713577 0.84019322 0.36104445
0.83164231 0.17238884 0.71097368
0.17970714 0.84139277 0.38004585
0.82156970 0.66301905 0.71391016
0.17313967 0.33049870 0.37337271
0.00723438 0.00049259 0.03083564
0.68808187 0.34202245 0.38320297
0.48521372 0.98777916 0.04202277
0.50475087 0.50232266 0.05214283
0.00009934 0.48875233 0.04129065
0.32825427 0.66647257 0.69732366
0.32268610 0.16195574 0.70071498
0.68102004 0.84090869 0.36455618
0.84055206 0.17634027 0.71309721
0.18163138 0.83070144 0.37967003
0.81823486 0.66365789 0.70784082
0.16877490 0.33446276 0.37141746
0.99932387 0.00656220 0.03864603
0.67861016 0.34004926 0.37975086
0.48805415 0.99994973 0.03755996
0.49918247 0.49626967 0.05341317
0.00003244 0.49473229 0.03687388
0.33829113 0.67680676 0.69949792
0.32283108 0.16361344 0.71114377
0.66795329 0.82810537 0.37193135
0.85041609 0.17494459 0.71515393
0.17568772 0.82190936 0.38040930
0.82030736 0.66222943 0.71376927
0.15679009 0.33665233 0.38176319
0.99437997 0.00933859 0.04390520
0.66889246 0.33895502 0.36818745
0.48614803 0.00683666 0.03531994
0.49669023 0.49544631 0.04882851
0.99442313 0.50192890 0.03485439
0.34611357 0.68064164 0.70177738
0.32355369 0.16160430 0.71192619
0.65674407 0.81814449 0.37896617
0.85259887 0.17189240 0.71043947
0.17436356 0.82776791 0.38537691
0.82129138 0.66692485 0.71735295
0.14393693 0.32939290 0.38527399
0.00026068 0.00792033 0.04172807
0.67669649 0.33991549 0.36326469
0.48428928 0.00359415 0.03474582
0.49772392 0.49697910 0.04727611
0.98954756 0.48424322 0.03562692
0.35075183 0.67966261 0.70059780
0.32746739 0.16206718 0.70691705
0.65831589 0.81915477 0.38025080
0.84224901 0.17185888 0.70522522
0.17884468 0.83508285 0.39160338
0.81883507 0.67091926 0.71069718
0.13961784 0.31987024 0.37726364
0.01247412 0.00821227 0.03971654
0.68761331 0.33880809 0.36890525
0.47997822 0.99457487 0.03126086
0.50878764 0.50092833 0.04846471
0.98946247 0.46971538 0.03661317
0.35175780 0.68020836 0.70123191
0.33340070 0.16709011 0.70310042
0.66629812 0.82265356 0.37778500
0.83194673 0.17516640 0.70431446
0.18076491 0.83447682 0.38671806
0.81020888 0.66343126 0.70114359
0.15159602 0.32642477 0.36924299
0.01575184 0.01297988 0.04370579
0.68832707 0.33584499 0.37709166
0.48184892 0.99321905 0.03094859
0.52152652 0.50905901 0.05116526
0.99093657 0.47763576 0.03953018
0.34773014 0.67832189 0.70804735
0.33462595 0.16938258 0.71033034
0.67193740 0.82485596 0.37365810
0.83613741 0.18265475 0.71048761
0.17909164 0.83216794 0.37545466
0.80827694 0.65655563 0.70075172
0.15769064 0.33020723 0.36858728
0.01376575 0.01972547 0.04567766
0.67824869 0.32855962 0.37700575
0.48898015 0.00366035 0.03697515
0.52158750 0.51126614 0.04728075
0.99650344 0.48878584 0.03604185
0.34277163 0.67529216 0.71620063
0.33343590 0.16833470 0.71762803
0.66819123 0.81911401 0.37182100
0.84225632 0.18521485 0.71255641
0.17282951 0.82936977 0.37189708
0.82152436 0.66182262 0.70705483
0.14987372 0.32027643 0.37337208
0.01342882 0.01477873 0.04031302
0.67187565 0.32787451 0.37212706
0.48482562 0.00754069 0.04317257
0.51491526 0.51212730 0.04108184
0.00229846 0.49827250 0.03347098
0.34273835 0.67918409 0.71572150
0.33372715 0.16053328 0.71279566
0.66163710 0.82078637 0.37658285
0.83981356 0.17783829 0.70766850
0.17041028 0.83585615 0.37661128
0.83267882 0.66752208 0.71148829
0.14177593 0.30866066 0.37439152
0.00834472 0.00557260 0.03564785
0.67253066 0.33417582 0.37038118
0.48091427 0.00078719 0.04576363
0.50964531 0.51516380 0.03764488
0.00589753 0.49820543 0.03629843
0.34315987 0.67878914 0.71453169
0.33536685 0.15355175 0.70570771
0.65898821 0.83120257 0.38144882
0.83399335 0.16966593 0.70415696
0.17280301 0.84584351 0.37853017
0.83148315 0.66602829 0.70854616
0.15040971 0.31149885 0.37336287
0.00956275 0.00174260 0.04243110
0.67003287 0.33860830 0.37491327
0.48790671 0.99485802 0.04169822
0.50846697 0.51194702 0.03874673
0.00540335 0.49341859 0.03867481
0.34020505 0.67446242 0.71465149
0.33485794 0.15553408 0.70570313
0.66159562 0.83390334 0.37764277
0.83648697 0.17093765 0.70761400
0.17194495 0.84233007 0.37479249
0.82545243 0.66194204 0.70283312
0.16569628 0.32736709 0.37623918
0.00925294 0.99978381 0.04610941
0.66322084 0.33804371 0.37933067
0.49832071 0.99635449 0.03828960
0.50235126 0.50486980 0.04131990
0.00374600 0.49649333 0.03682915
0.33437184 0.67045061 0.71328631
0.32867837 0.15829185 0.71019983
0.66501465 0.82803242 0.37038283
0.84492657 0.17544035 0.71219603
0.16949256 0.83614167 0.37076123
0.82154716 0.65730358 0.70209471
0.17072465 0.33713540 0.37710717
0.00216825 0.00121358 0.03952667
0.65803715 0.33358302 0.37776641
0.50506612 0.00420670 0.04120079
0.49384995 0.50148110 0.04047358
0.00417304 0.50389270 0.03471099
0.32975173 0.66613244 0.71011509
0.32535289 0.15830529 0.71246782
0.66207920 0.82320234 0.36985424
0.84380861 0.17349515 0.70992648
0.16712377 0.83747253 0.37227797
0.82773669 0.66101232 0.70401634
0.16756634 0.33510630 0.37778461
0.99795628 0.00303493 0.03493897
0.66025652 0.33194465 0.37798836
0.50785184 0.00834053 0.04169314
0.49719265 0.50581124 0.03908334
0.00386766 0.50700848 0.03921651
0.32972370 0.66458721 0.70667802
0.33000138 0.16429453 0.70839118
0.65879615 0.82502671 0.37276483
0.83614318 0.16657477 0.70480505
0.16779956 0.84033382 0.37675236
0.84078929 0.67219565 0.70715220
0.16333973 0.33272903 0.37474878
0.99667907 0.99991180 0.04013057
0.66502960 0.33398439 0.38093788
0.51078067 0.00352772 0.03955034
0.50601582 0.51097909 0.03802112
0.99769113 0.50022822 0.04799176
0.33205049 0.66489244 0.70686788
0.33451535 0.17003717 0.70415302
0.66208099 0.83449492 0.37567543
0.83197704 0.16029251 0.70289492
0.16935642 0.84153224 0.37949040
0.84682058 0.67707993 0.70904088
0.16852711 0.33978261 0.36949456
0.99629192 0.99638607 0.04641695
0.66555741 0.33332212 0.38030093
0.51135513 0.99786971 0.04115452
0.50913952 0.50600277 0.04053767
0.99145339 0.49260855 0.04928840
0.33203824 0.65966480 0.70747610
0.33344234 0.17008304 0.70663777
0.66971238 0.84407852 0.37607140
0.83170460 0.16033978 0.70539086
0.16588656 0.83783352 0.37526439
0.84261192 0.67216501 0.70983383
0.17751773 0.34813891 0.37120080
0.99487053 0.99492478 0.04546778
0.66503490 0.33145021 0.37594032
0.50722882 0.99583028 0.04300059
0.50548723 0.49701276 0.04311718
0.99340883 0.49608343 0.04284373
0.32822096 0.65186986 0.70778000
0.32904795 0.16691288 0.71300642
0.67321052 0.84621310 0.37504620
0.83353912 0.16554519 0.70786970
0.16137748 0.83114289 0.36808708
0.83700130 0.66406252 0.71063088
0.17808765 0.34647171 0.37698877
0.99557369 0.99666009 0.04143462
0.66365487 0.33121212 0.37330250
0.50466003 0.99828030 0.04436583
0.50081033 0.49707796 0.04052917
0.99822333 0.50299703 0.03962400
0.32511436 0.65046536 0.70896833
0.32783628 0.16363581 0.71439020
0.66980912 0.84020989 0.37874969
0.83507340 0.16668823 0.70497865
0.16050215 0.83022481 0.36844910
0.83865723 0.66151059 0.71105782
0.17613916 0.33959537 0.37841937
0.99814183 0.99793215 0.04147968
0.66129768 0.32976978 0.37463904
0.50534418 0.00435152 0.04216454
0.49669012 0.50312518 0.03563382
0.99841172 0.50389328 0.04194623
0.32580484 0.65832571 0.70988030
0.33527116 0.16522008 0.70990390
0.66552149 0.83712508 0.38098402
0.83106992 0.16261172 0.70227840
0.16051026 0.83139277 0.37279131
0.84388603 0.66624808 0.71119541
0.17698352 0.33882630 0.37535748
0.99851571 0.99594807 0.04456978
0.66467485 0.33236990 0.37468155
0.50703493 0.00525643 0.03820245
0.49292617 0.50157831 0.03655182
0.99782310 0.50277716 0.04585675
0.33006045 0.66883982 0.70910947
0.34497387 0.17451230 0.70673834
0.66581373 0.83999200 0.37809125
0.82615381 0.15930899 0.70431070
0.16218945 0.83124599 0.37354015
0.84418536 0.67202177 0.70918941
0.17813544 0.34225984 0.37385432
0.99984143 0.99617862 0.04352685
0.66764454 0.33538313 0.37123001
0.50636725 0.00146831 0.03879670
0.48784203 0.48928088 0.04093388
0.00010205 0.50069790 0.04643074
0.33425715 0.67183271 0.70719928
0.34421047 0.17813831 0.71117299
0.67196443 0.83984461 0.37558690
0.82477039 0.16053402 0.70706358
0.16160945 0.82886433 0.37177687
0.83874570 0.67192339 0.70606372
0.17709476 0.34144065 0.37571783
0.99899021 0.99622677 0.03843782
0.66570195 0.33435285 0.36939989
0.50428456 0.00260588 0.04017389
0.48690137 0.48204202 0.03952912
0.99996389 0.50038262 0.04245718
0.33352748 0.66786242 0.70817541
0.33331094 0.17089766 0.71721870
0.67528387 0.83187951 0.37589940
0.82452321 0.16344787 0.70813456
0.15844231 0.82504453 0.37166083
0.83522830 0.66931361 0.70354495
0.17492792 0.33815977 0.37529131
0.99380496 0.99798171 0.03662397
0.66625256 0.33393278 0.37369247
0.50439584 0.00750605 0.03937825
0.49033375 0.49005549 0.03795371
0.99981641 0.50348993 0.04177477
0.33002888 0.66385661 0.71188424
0.32775927 0.16452013 0.71458348
0.67305377 0.82857116 0.37930717
0.82191666 0.16361756 0.70674207
0.15996936 0.82607885 0.37455778
0.84160952 0.67460399 0.70312788
0.17077570 0.33250179 0.37163499
0.99846457 0.00245027 0.03899783
0.66857006 0.33243673 0.37961252
0.50698717 0.01153578 0.03717329
0.49618511 0.50234769 0.04204371
0.00384525 0.50358095 0.04473391
0.33133213 0.66651533 0.71285066
0.33608773 0.17315808 0.70575582
0.67282596 0.83675886 0.38000430
0.81996521 0.16104347 0.70535480
0.16151671 0.82578545 0.37873633
0.84862976 0.68399859 0.70409130
0.16697974 0.32903991 0.36950070
0.00653322 0.00100694 0.04179399
0.67051348 0.33090318 0.37931008
0.50512739 0.00667888 0.03769528
0.50159983 0.50476575 0.04768482
0.00856252 0.50245266 0.04507631
0.33733732 0.67336614 0.70850336
0.34170178 0.18456389 0.70093252
0.67249504 0.84511426 0.37771761
0.82653586 0.16113445 0.70848536
0.16110730 0.82580274 0.37828847
0.84091370 0.68386641 0.70500048
0.16889749 0.33076582 0.37214934
0.00295392 0.99661389 0.04130887
0.66969626 0.32785757 0.37501290
0.49932338 0.99661714 0.04209634
0.49975974 0.49505869 0.04695775
0.01177026 0.50427271 0.03952370
0.33629889 0.66803622 0.70521290
0.33542635 0.17717054 0.70267033
0.66826091 0.84281927 0.37528682
0.83675142 0.16897293 0.71385874
0.16351694 0.82928061 0.37353223
0.82794291 0.67327630 0.70567176
0.17076951 0.32752486 0.37930791
0.99367489 0.99483123 0.04079072
0.66476919 0.32539257 0.37651203
0.49606710 0.99187357 0.04544406
0.49331311 0.48801034 0.04285811
0.00975743 0.50743964 0.03409194
0.33085891 0.65906429 0.70623184
0.32745994 0.16180055 0.70499495
0.66234360 0.82971107 0.37117425
0.84035545 0.17850003 0.71647087
0.16909193 0.82890815 0.37341307
0.82056189 0.66163896 0.70655732
0.16570338 0.31939564 0.38240397
0.98941005 0.99508707 0.04147762
0.66369619 0.33080644 0.38242975
0.50021396 0.99654929 0.04423041
0.49401424 0.50152894 0.03953837
0.00480917 0.51252386 0.03734853
0.33483527 0.66567509 0.70669761
0.32914579 0.16038189 0.70012895
0.65938766 0.82201759 0.36692296
0.83400940 0.17501866 0.71394602
0.17605207 0.82838332 0.37994790
0.82125669 0.65625800 0.70924100
0.15677652 0.31217458 0.37685760
0.99666019 0.00109822 0.04312417
0.66612142 0.33065976 0.38040653
0.50638923 0.00488093 0.04349128
0.50094184 0.51679715 0.03819250
0.00379102 0.51421609 0.04468968
0.34004692 0.67547728 0.70374948
0.33954674 0.17221460 0.69370408
0.66009503 0.82662078 0.36433236
0.83076480 0.16561330 0.70673976
0.17518688 0.83210875 0.38437665
0.82138437 0.65495713 0.71414221
0.15571665 0.31659703 0.37476643
0.00349258 0.00547020 0.04242111
0.66386972 0.32752433 0.37265234
0.50848671 0.00407189 0.04264458
0.51225114 0.51313459 0.04034147
0.00561122 0.50933753 0.04425451
0.33670557 0.67170195 0.70029696
0.34676878 0.18024787 0.69677592
0.66098516 0.82917567 0.36307405
0.83934753 0.16679450 0.70326351
0.17326467 0.83893379 0.38380468
0.82081503 0.65754291 0.71694997
0.15734654 0.33106205 0.37526796
0.99964610 0.00300836 0.03892336
0.65837035 0.33324464 0.36694860
0.50203531 0.99266551 0.04355122
0.52040332 0.50145826 0.04811725
0.00304951 0.49828556 0.03681209
0.33095942 0.66224866 0.70150001
0.34396094 0.16732205 0.70767903
0.65847122 0.82343098 0.37094521
0.84683177 0.17424825 0.70890684
0.17886598 0.84866528 0.38232246
0.82278777 0.66038883 0.71537818
0.15369699 0.33983404 0.37204921
0.99998639 0.00217876 0.03851273
0.65898132 0.34307756 0.36732306
0.48795248 0.98518808 0.04565073
0.51905005 0.49983424 0.05414807
0.99535198 0.49002892 0.03126233
0.32937630 0.66225561 0.70524426
0.33452753 0.15091292 0.71480358
0.65805927 0.82028676 0.38399106
0.84460824 0.17705413 0.71737424
0.18118467 0.84905082 0.38066293
0.82752571 0.66266489 0.70870404
0.15024615 0.33751492 0.37096988
0.00872588 0.00259160 0.04303544
0.67095823 0.35254846 0.37102098
0.48519115 0.99032149 0.04370680
0.52048701 0.51804651 0.05319706
0.99571662 0.49449218 0.03533778
0.33236414 0.67035774 0.70411598
0.32974011 0.15221250 0.70984083
0.66731615 0.83363436 0.38953801
0.84185024 0.16478421 0.71646007
0.18339376 0.84250856 0.37951688
0.83084041 0.66523145 0.70352985
0.14708030 0.33067336 0.37393660
0.01721676 0.00400091 0.04490562
0.67548350 0.34989011 0.36835384
0.49252722 0.00074425 0.04011379
0.51800107 0.52766532 0.04908905
0.00374251 0.50155139 0.04505976
0.33506743 0.67167939 0.69868295
0.32930257 0.16073472 0.70276599
0.67960367 0.85209842 0.38313122
0.84413762 0.15315129 0.71016845
0.18001549 0.84033015 0.38155187
0.82934300 0.66462860 0.70404618
0.14806788 0.33089814 0.37933575
0.01574738 0.00244333 0.03819283
0.66735731 0.34036559 0.36331891
0.48911880 0.00052313 0.03526556
0.50875037 0.51416336 0.05046958
0.00837924 0.49944941 0.04666757
0.33224112 0.66501394 0.69875070
0.33174051 0.16065858 0.70515894
0.68221598 0.86169509 0.36911293
0.84837510 0.15443729 0.70697629
0.16795632 0.84193131 0.38292637
0.81800233 0.65840316 0.70495015
0.15432028 0.34184528 0.38107254
0.01020689 0.99602020 0.03374601
0.66878558 0.34209920 0.36738113
0.47334568 0.98572015 0.03358066
0.50607944 0.49752249 0.05383841
0.00513172 0.49406758 0.03991823
0.33244819 0.65972692 0.70660656
0.32823900 0.14894475 0.71482237
0.67852088 0.86036589 0.36141992
0.84783155 0.16445088 0.70908925
0.16228727 0.84441131 0.37884916
0.81167898 0.65070534 0.70584917
0.15732716 0.34512817 0.37590192
0.00709760 0.99452155 0.03587052
0.67782059 0.34874403 0.37613246
0.46390208 0.97948013 0.03347652
0.51044575 0.49368739 0.04794419
0.99501484 0.48769115 0.03734886
0.33966212 0.66153382 0.71347540
0.32156786 0.14504748 0.71887947
0.68061533 0.85310323 0.36802955
0.84270468 0.16964222 0.70660540
0.16513231 0.84341818 0.37381408
0.81402118 0.64599346 0.70549193
0.15453106 0.33409783 0.37171527
0.00532397 0.00432875 0.04014304
0.68399786 0.35329074 0.37951701
0.47562375 0.98708247 0.03752343
0.50704855 0.49476696 0.03688911
0.98941539 0.48720846 0.04171796
0.34592080 0.66802574 0.71026725
0.32131660 0.15230519 0.71028846
0.68084405 0.83795816 0.38084394
0.83718321 0.16501833 0.69978726
0.17235595 0.84729094 0.37463516
0.81971651 0.65156121 0.70960689
0.15097554 0.32086726 0.37256518
0.00223660 0.01208648 0.04415740
0.67639459 0.34667843 0.37341939
0.49479831 0.99728781 0.04335559
0.49795992 0.49697640 0.03301399
0.99763747 0.49717201 0.04643101
0.34387420 0.67699101 0.70086720
0.33361087 0.16249452 0.70090546
0.67640653 0.82949577 0.38327229
0.83559627 0.16114730 0.69759811
0.17890189 0.85637189 0.37478406
0.82707472 0.65975899 0.71582687
0.15177084 0.32462973 0.37258099
0.99963553 0.00870652 0.04376658
0.66564519 0.33549187 0.36842508
0.49613322 0.99533830 0.04373298
0.49226555 0.49807117 0.03973792
0.00854080 0.50227930 0.04499371
0.33857576 0.68009250 0.70270417
0.34774485 0.16881829 0.70298677
0.67347400 0.83287646 0.37539217
0.84126771 0.16960026 0.70498455
0.17780345 0.85601872 0.37552512
0.83088068 0.65888568 0.71237677
0.15779419 0.33971705 0.37292930
0.99850128 0.99755071 0.03903127
0.66240634 0.33550442 0.37262963
0.48460073 0.98877646 0.03817613
0.49450532 0.49587210 0.04431946
0.00480040 0.49374395 0.03917241
0.33894854 0.67689904 0.71387830
0.35064950 0.16439327 0.71245897
0.66739405 0.83545149 0.37071480
0.84209618 0.18080809 0.71318416
0.17553482 0.84480524 0.37520637
0.83598265 0.66151850 0.70360639
0.17039777 0.34268826 0.37095720
0.99532628 0.99006847 0.03844145
0.66637971 0.34171882 0.37988441
0.48329229 0.98969880 0.03714091
0.50212705 0.49488361 0.04043870
0.99580662 0.48667795 0.03832758
0.34309308 0.67209977 0.71789624
0.33849531 0.15272741 0.71475970
0.66458619 0.83769405 0.37367675
0.83525125 0.18081529 0.71250809
0.17547009 0.83603313 0.37363498
0.84523115 0.67098110 0.69995843
0.17671605 0.33413780 0.37313981
0.99071581 0.99631818 0.04273858
0.66856194 0.34158617 0.38219204
0.49814316 0.00055274 0.04298363
0.50570830 0.49966284 0.03238131
0.99402420 0.49451631 0.04649623
0.34026613 0.66849762 0.71167954
0.32723777 0.15213918 0.70807996
0.66869713 0.83790529 0.37690678
0.83370088 0.17536691 0.70620408
0.17368064 0.83535681 0.37279515
0.84275438 0.67393296 0.70514750
0.17630477 0.32897146 0.37833038
0.99089880 0.00173543 0.04476885
0.66386255 0.33369529 0.37751834
0.51074493 0.00869121 0.04670175
0.49803310 0.50702988 0.03312456
0.00014940 0.50840521 0.05145556
0.32941165 0.66510677 0.70434864
0.32618796 0.16197090 0.70319736
0.67158101 0.83372500 0.37204469
0.83373844 0.17069444 0.70555615
0.16900917 0.83506218 0.37308390
0.82956863 0.66652085 0.71405391
0.17370034 0.33055765 0.37506861
0.99220966 0.99251064 0.04391813
0.65879597 0.32093169 0.37096180
0.51184244 0.00723052 0.04400655
0.49144458 0.50821973 0.03959048
0.00458489 0.51209148 0.04730129
0.32330567 0.66788096 0.70632062
0.32996511 0.17231959 0.70542662
0.66865507 0.83025726 0.36680301
0.83792792 0.17281448 0.70897585
0.16194700 0.83148764 0.37309746
0.82598513 0.66403842 0.71560603
0.17745662 0.33705808 0.37328843
0.99134570 0.98447995 0.04233066
0.65983654 0.31666829 0.37070790
0.50724678 0.00272573 0.03995332
0.49186187 0.49725753 0.04080885
0.00186241 0.50175458 0.03973278
0.32626336 0.66694471 0.71047857
0.33067085 0.17137537 0.71144187
0.66614176 0.83055874 0.36911806
0.83874556 0.17532889 0.70709220
0.15761456 0.82888461 0.36950253
0.83710696 0.67472658 0.71039798
0.18316267 0.34003204 0.37814702
0.99166155 0.98802361 0.04312699
0.66321809 0.32461478 0.37365369
0.50609324 0.00019093 0.04074763
0.49670024 0.48996664 0.03923122
0.99671622 0.49316235 0.03739416
0.33336723 0.66162648 0.70820681
0.33201880 0.16832796 0.71183774
0.66787517 0.83491046 0.37702742
0.83010660 0.17040288 0.70146611
0.16130841 0.82788463 0.36809056
0.84838290 0.68592025 0.70789504
0.17623880 0.33342155 0.38091544
0.99528178 0.99925559 0.04544561
0.66256353 0.32972253 0.37334269
0.51046469 0.00213359 0.04755802
0.50138162 0.49824896 0.03739389
0.99694912 0.49615708 0.04055791
0.33526514 0.66103746 0.70189273
0.33386270 0.17290437 0.70661934
0.66873119 0.83544969 0.38172310
0.82243241 0.15999109 0.70060493
0.16428097 0.82801449 0.37189492
0.84710214 0.68242662 0.71046179
0.16800471 0.32987504 0.38149736
0.00136035 0.00779438 0.04509354
0.66042329 0.32856325 0.37200889
0.51228319 0.00514993 0.04913501
0.50142950 0.50820155 0.03764413
0.00379075 0.50541512 0.04306364
0.32771000 0.66226370 0.70192027
0.33862373 0.17762004 0.70466177
0.66570737 0.83329819 0.37795198
0.82013760 0.15215164 0.70462253
0.16432610 0.82874931 0.37471884
0.83948488 0.67133521 0.71471052
0.16970291 0.33787623 0.37956630
0.00553589 0.00548079 0.04163455
0.66249368 0.32765010 0.37253741
0.51059038 0.00830734 0.04145262
0.50070001 0.50547256 0.04252733
0.00585730 0.50739794 0.04161169
0.32278895 0.66446821 0.70956897
0.34434873 0.17815793 0.70849033
0.66334649 0.83185518 0.37368537
0.82522238 0.15625947 0.70685688
0.16194530 0.82793742 0.37551683
0.83827093 0.67026440 0.71105365
0.17603725 0.34519018 0.37576409
0.00515952 0.99781226 0.03770293
0.66804577 0.33173277 0.37395305
0.50946946 0.01120079 0.03530853
0.50099808 0.49568458 0.04365350
0.99904886 0.49804455 0.04027818
0.32726040 0.66771662 0.71642572
0.34087713 0.17161863 0.71130009
0.66528850 0.83209669 0.37604835
0.83029608 0.16528957 0.70429337
0.15875519 0.82555592 0.37466460
0.84299661 0.67414542 0.70293641
0.17829225 0.34335652 0.37561024
0.00251695 0.99459409 0.03760172
0.67032297 0.33738342 0.37484093
0.50668517 0.01001285 0.03742456
0.49866509 0.49241748 0.04100580
0.99520908 0.49363435 0.04439745
0.33300294 0.66969713 0.71438084
0.33329541 0.16305826 0.71083213
0.66844957 0.83791843 0.37921945
0.82574248 0.16117923 0.70373376
0.16136192 0.82713921 0.37587271
0.84078092 0.66865672 0.70352888
0.17084666 0.33632976 0.37590407
0.00065595 0.99984797 0.03992190
0.66766848 0.33768763 0.37460402
0.50184449 0.00405873 0.04316060
0.49240382 0.49619500 0.03913695
0.99881000 0.50113826 0.04887588
0.33532015 0.66895628 0.70782632
0.33161291 0.16411749 0.70904892
0.66860860 0.83948886 0.37799521
0.82360493 0.15224792 0.70604425
0.16338815 0.83025590 0.37864991
0.83183292 0.66003856 0.70835095
0.16325446 0.33328532 0.37323834
0.00488941 0.00409797 0.04004357
0.66509560 0.33563980 0.37522050
0.49872471 0.00157873 0.04293986
0.48889323 0.50066202 0.04035339
0.00593137 0.51010869 0.04373435
0.33210418 0.66281258 0.70663921
0.33465009 0.17052110 0.70978032
0.66603841 0.83184681 0.37426324
0.82863084 0.15322514 0.70992372
0.16129263 0.83290365 0.37834896
0.82613176 0.65655735 0.71047781
0.16494511 0.33771077 0.36811972
0.00948482 0.00118196 0.04017040
0.66546841 0.33472626 0.37542717
0.49754700 0.00160459 0.03710357
0.49171234 0.49945952 0.04193934
0.00892770 0.51091058 0.03441914
0.33027762 0.66226463 0.70999468
0.33576027 0.17127293 0.71100873
0.66706975 0.82931032 0.37357140
0.83346482 0.16331180 0.71148444
0.16118612 0.83764904 0.37459771
0.83017814 0.66080690 0.70864082
0.16764897 0.33992733 0.36861409
0.00445670 0.99819196 0.04075557
0.66933436 0.33526397 0.37449885
0.49820985 0.99770724 0.03629713
0.49726114 0.49362251 0.04066324
0.00403836 0.50111938 0.03430990
0.33738245 0.66769483 0.70900906
0.33475201 0.16763357 0.70762120
0.67248117 0.83765602 0.37595416
0.83756538 0.17375243 0.70879685
0.16567568 0.83933423 0.37199892
0.83732952 0.66819247 0.70550865
0.16455092 0.33370010 0.37716124
0.99500796 0.00068562 0.04231146
0.67125294 0.33994980 0.37604059
0.49604740 0.98902061 0.04437045
0.50219906 0.49333115 0.04011940
0.00165201 0.49604301 0.04198912
0.34416220 0.66862657 0.70451526
0.33546335 0.16574707 0.70119290
0.67526363 0.84788122 0.37410792
0.83711021 0.17602852 0.70962102
0.17479132 0.83826202 0.37491088
0.83645531 0.67047581 0.70709824
0.15855177 0.32716375 0.38051329
0.99126440 0.00532405 0.04577505
0.66968436 0.33987393 0.37701253
0.49261399 0.98838133 0.05004038
0.50442146 0.50329884 0.04188365
0.00650181 0.50491666 0.04510736
0.34207576 0.66551549 0.70351627
0.33502189 0.16706840 0.69797209
0.67337534 0.84516776 0.36923382
0.83497354 0.17025499 0.71534645
0.17848992 0.84056474 0.37925789
0.82851624 0.66289627 0.70959720
0.15688288 0.32831970 0.37466018
0.99551484 0.00622576 0.04667876
0.66851791 0.33544466 0.37815358
0.49305444 0.99985184 0.04432861
0.50485671 0.50906649 0.04723988
0.00896325 0.51317597 0.04119352
0.33194237 0.66296699 0.70671835
0.33352727 0.16818773 0.70241564
0.66576753 0.83020694 0.36756521
0.83785260 0.16594907 0.71842660
0.17716504 0.84455736 0.37677978
0.82393255 0.65404006 0.70904521
0.16357840 0.33237757 0.36943314
0.00192657 0.99965283 0.04196469
0.66973407 0.33684926 0.37989750
0.49678941 0.00668092 0.03711231
0.50495717 0.50427914 0.05274530
0.00348069 0.50774483 0.03721362
0.32593641 0.66396313 0.70995250
0.33212723 0.16551078 0.70768961
0.66083059 0.82625632 0.37099909
0.84405791 0.17156875 0.71683724
0.17335908 0.84101096 0.37424881
0.82624124 0.65733307 0.70548126
0.16669797 0.32710057 0.37173501
0.99827873 0.99027449 0.03895077
0.67252874 0.33869374 0.37719431
0.50243612 0.00217208 0.03826659
0.50830681 0.50068914 0.04873710
0.99173962 0.49071033 0.03701163
0.33218069 0.67191538 0.70792663
0.32984425 0.16247281 0.70543607
0.66278828 0.83467773 0.37530066
0.85029846 0.18610800 0.71430629
0.17452139 0.83451410 0.37620387
0.82693076 0.66756256 0.70111016
0.16340404 0.32074655 0.37838810
0.99016399 0.98883145 0.04070123
0.66777975 0.33225752 0.37356451
0.49744160 0.99011187 0.04387294
0.50870166 0.50001496 0.04186210
0.98947284 0.48627803 0.03672950
0.34127915 0.67739472 0.70155939
0.32659739 0.15889787 0.70359831
0.66407289 0.84051224 0.37371562
0.85167436 0.19572711 0.71326572
0.18287275 0.83535408 0.37928838
0.82344291 0.67128333 0.70278705
0.15437731 0.31989511 0.37831807
0.99205935 0.99683171 0.04211916
0.65990146 0.32489098 0.36874233
0.48645987 0.98325350 0.04141337
0.50614092 0.50228312 0.04252134
0.99626947 0.49723469 0.03528697
0.34599078 0.67860032 0.70140673
0.32531386 0.15881344 0.70773371
0.65761462 0.83152508 0.37231920
0.84582183 0.18974424 0.71273195
0.18444721 0.83580106 0.38309050
0.81789282 0.66518849 0.70807742
0.15189870 0.32435211 0.37202334
0.00706657 0.00558996 0.03698574
0.66106071 0.32721520 0.36521517
0.48174921 0.99300863 0.02949772
0.50872016 0.50537569 0.04697235
0.99566439 0.50424287 0.03550905
0.34463445 0.67591911 0.70699730
0.33054192 0.16475422 0.71375574
0.65012416 0.81244628 0.37568210
0.83934161 0.17236854 0.70992218
0.17406370 0.83328930 0.38225928
0.81685206 0.66025647 0.71032499
0.16393777 0.33191891 0.37106625
0.01660360 0.00855577 0.02573963
0.66964840 0.33668212 0.36768147
0.48208875 0.00224956 0.02683962
0.51750097 0.50955652 0.04630369
0.99135710 0.49912050 0.04526022
0.33991787 0.67173073 0.70823445
0.34018362 0.17069743 0.71598247
0.65791001 0.81738340 0.37692579
0.83844412 0.16117800 0.70221468
0.16622822 0.83206501 0.37803704
0.82653155 0.66850933 0.70999165
0.16511075 0.32663509 0.37732964
0.01197399 0.00853602 0.02024082
0.67961345 0.34124040 0.37641165
0.48716015 0.99996849 0.03775294
0.52302503 0.51373005 0.03866593
0.99023028 0.48738157 0.05685968
0.33698908 0.67286973 0.70287780
0.34469165 0.17313065 0.71524955
0.67167173 0.83639386 0.37859809
0.84408458 0.17154930 0.69174093
0.17554751 0.83303213 0.37785472
0.83593118 0.68517233 0.70462144
0.15349290 0.31436328 0.38043055
0.00267725 0.01084179 0.03153820
0.68226552 0.33896116 0.38300191
0.49156711 0.99100372 0.05233782
0.51671272 0.51522501 0.03452689
0.99473796 0.48318004 0.05522987
0.33866266 0.67968807 0.69723338
0.33737509 0.16907133 0.71540909
0.67324560 0.83779696 0.38095308
0.83727538 0.17444555 0.69873780
0.18214221 0.82938343 0.37627304
0.83228424 0.68598194 0.70143443
0.14719047 0.31288574 0.37395462
0.00282718 0.01030698 0.04659447
0.67341496 0.33773279 0.37965707
0.48805035 0.98750746 0.05055879
0.50426295 0.51056972 0.03868400
0.00330909 0.49080576 0.04115659
0.33785585 0.68244377 0.70214434
0.32812298 0.16534486 0.71823179
0.66572087 0.81826086 0.38357594
0.82870848 0.16568312 0.71154303
0.16694917 0.82655695 0.37633078
0.82279028 0.66720788 0.70566816
0.15485735 0.32657827 0.36810591
0.01397006 0.00467603 0.05139150
0.67131659 0.34288419 0.37689029
0.48850817 0.99217992 0.03186340
0.49784684 0.50113184 0.04405832
0.00485036 0.49987331 0.03139880
0.32377281 0.67065682 0.71301875
0.33169607 0.16941656 0.72145426
0.65934857 0.80409644 0.38171393
0.83061518 0.16353271 0.71096978
0.15706562 0.83579960 0.37147856
0.82096993 0.65626126 0.70886616
0.16877844 0.33640045 0.36897839
0.01920971 0.00178067 0.04912568
0.67283738 0.34208825 0.37587630
0.49785384 0.00398068 0.02847839
0.49795489 0.49892013 0.04391305
0.00256421 0.50295696 0.03622137
0.31738004 0.66275283 0.71884161
0.33933927 0.17522979 0.71679945
0.66775240 0.82278780 0.37386136
0.83708053 0.16670508 0.69972878
0.16133393 0.84940428 0.36797442
0.83527243 0.66801417 0.70609223
0.16705870 0.32602246 0.37333328
0.00522780 0.00146483 0.04605334
0.66730017 0.32921225 0.37479873
0.50911199 0.00234796 0.04291223
0.49790272 0.50761195 0.03483988
0.00509229 0.49844459 0.04312694
0.32781193 0.67189234 0.71462585
0.34599681 0.17805762 0.70668780
0.67651713 0.84401817 0.36979771
0.83834460 0.17374840 0.69458872
0.16889185 0.85175857 0.36987233
0.85375893 0.67932330 0.70228029
0.15854651 0.32607981 0.37219460
0.98810604 0.00133130 0.04390921
0.66208519 0.32012317 0.37681924
0.50685103 0.99022045 0.04850884
0.49348289 0.50774320 0.03065691
0.00144880 0.49335642 0.04672669
0.33939197 0.67787789 0.70770276
0.34559358 0.17046921 0.70327196
0.66615891 0.83207233 0.37373449
0.82929817 0.17731227 0.70335168
0.17052087 0.84412534 0.36928828
0.85551837 0.67519690 0.70553446
0.16051303 0.34028404 0.37226783
0.99163711 0.00379062 0.04378768
0.65596374 0.32283675 0.37971214
0.49644424 0.98933427 0.03805128
0.49487339 0.50337566 0.03589786
0.99375654 0.49346976 0.04537518
0.34069920 0.66816464 0.71003024
0.33489749 0.16027380 0.70526689
0.65918202 0.82180025 0.37515366
0.82258045 0.17282243 0.70775919
0.16176983 0.83455642 0.36714860
0.84624661 0.66265620 0.71349866
0.17243010 0.34904841 0.37824486
0.00584220 0.00400251 0.04504840
0.65668625 0.33410902 0.38068557
0.50327568 0.00265079 0.03501339
0.50336492 0.50678625 0.03814807
0.99396790 0.49921442 0.04161866
0.32869888 0.65198123 0.71664820
0.32822988 0.15852150 0.70403959
0.66638688 0.83366954 0.37190280
0.82382181 0.16711559 0.70121593
0.15976582 0.83442962 0.36633092
0.84220600 0.65434631 0.71742610
0.18417401 0.34534165 0.38400907
0.00716911 0.99988587 0.04413112
0.66152133 0.34032059 0.37565158
0.51686204 0.01382829 0.04878985
0.50523528 0.50283715 0.03639064
0.99883410 0.50508722 0.04247896
0.32091072 0.64991810 0.71021292
0.32614668 0.15843913 0.70186959
0.67560443 0.84842124 0.36936443
0.83148566 0.16156614 0.69765277
0.16558092 0.83868929 0.36747788
0.84852606 0.66548501 0.71497271
0.18479868 0.34108448 0.38928218
0.99647693 0.99858214 0.03956173
0.66377919 0.33472680 0.36980382
0.50904693 0.00925179 0.06061529
0.49824902 0.49462729 0.03305858
0.00276197 0.50286180 0.04622081
0.32715084 0.66284251 0.70248828
0.32925779 0.15808540 0.70366486
0.67316695 0.84449826 0.37070378
0.83631473 0.16104996 0.70347940
0.16685062 0.83414086 0.36990142
0.85434765 0.67780222 0.70875629
0.17930202 0.34226100 0.38769052
0.98966738 0.99874380 0.03967207
0.66404182 0.33304484 0.37038179
0.49655636 0.00354040 0.05865219
0.49390403 0.49287781 0.03316127
0.00455807 0.50317930 0.04368297
0.33418196 0.67095871 0.70333087
0.33611459 0.16325243 0.70790566
0.66114618 0.83160264 0.37456404
0.83221797 0.16372623 0.71441490
0.16145931 0.82592978 0.37170949
0.85137398 0.67560698 0.70923060
0.18092750 0.34837640 0.37759175
0.99125794 0.99814972 0.04406622
0.65844882 0.33404846 0.37556014
0.50106853 0.00715444 0.04614289
0.49267716 0.49304037 0.03641425
0.00010929 0.50325076 0.03712108
0.33531429 0.66581397 0.71036104
0.33539912 0.16818638 0.70863565
0.65771949 0.82805423 0.37770395
0.82833790 0.15963353 0.71336494
0.15421040 0.82361623 0.37481578
0.84152162 0.66766418 0.71367558
0.18181669 0.34959109 0.37224280
0.99366497 0.99656290 0.04363398
0.65600473 0.33200505 0.37567619
0.51628414 0.00725862 0.03784096
0.49258574 0.49536940 0.03989324
0.99446746 0.50443722 0.03584234
0.32956502 0.65581694 0.71382050
0.33026888 0.16900291 0.70717519
0.66683248 0.83760320 0.37599123
0.82577625 0.15523766 0.70208226
0.15302825 0.82655877 0.37723815
0.83075014 0.66147760 0.71240603
0.17700758 0.34251849 0.37449351
0.99605233 0.99652090 0.03988054
0.66076576 0.33078013 0.37264434
0.52657758 0.00787102 0.04066500
0.49356830 0.49565843 0.04314295
0.99734774 0.50711763 0.03935773
0.32778119 0.65718173 0.70817195
0.32926912 0.16944344 0.70730213
0.67481948 0.84629711 0.37326792
0.82366380 0.15696370 0.69945788
0.15930943 0.83090000 0.37809303
0.82805521 0.66476614 0.70605440
0.17200993 0.33470638 0.37576809
0.99728362 0.99793956 0.03689225
0.66640852 0.33209792 0.37503938
0.52120248 0.00939317 0.04552266
0.49190304 0.49123766 0.04285579
0.00493207 0.50462281 0.04175956
0.33838187 0.66944557 0.70441852
0.33090845 0.16985039 0.71015471
0.67318029 0.84131184 0.37347660
0.82542613 0.16199826 0.70664931
0.16356040 0.83021445 0.37676676
0.83597759 0.67557685 0.70099849
0.17065969 0.33390171 0.37398422
0.99661623 0.99623647 0.03925002
0.67274132 0.33712924 0.37948008
0.50569018 0.00763349 0.04129111
0.49080326 0.48908946 0.04282582
0.00526748 0.49923376 0.03887883
0.34279578 0.67436899 0.70661524
0.33616603 0.17062855 0.71348970
0.66459461 0.82986918 0.37636194
0.82565255 0.16497786 0.71356100
0.16471012 0.82672758 0.37144321
0.83791614 0.67515494 0.70561605
0.17250837 0.33746268 0.37155223
0.99887329 0.99563309 0.04344964
0.67517280 0.34011330 0.37916603
0.49958285 0.00682029 0.03412383
0.49293879 0.49046699 0.04388216
0.99921675 0.49796269 0.03386864
0.33760366 0.66861278 0.70973671
0.33628883 0.16970446 0.71116964
0.66285804 0.82868370 0.38130797
0.82764312 0.16104027 0.71026482
0.16267391 0.82605833 0.36857542
0.83106522 0.66774705 0.71246340
0.16969361 0.33543446 0.37233793
0.00589556 0.00028586 0.04373870
0.67147079 0.33732328 0.37328977
0.50291994 0.00539911 0.03647285
0.49534345 0.49364083 0.04342601
0.00019901 0.50319895 0.03498104
0.33364617 0.66406974 0.70987211
0.33299959 0.16713446 0.70583239
0.67314271 0.83641985 0.38027822
0.83292703 0.15723195 0.70344555
0.16146704 0.83023540 0.37041440
0.82636402 0.66523170 0.71193859
0.16258514 0.33042833 0.37570910
0.01035854 0.00383838 0.04166061
0.66939318 0.33440469 0.36825881
0.50281026 0.00073346 0.04419460
0.49597455 0.49537969 0.04200497
0.00667601 0.50756473 0.04329020
0.33339906 0.66973542 0.70818565
0.33593059 0.16725089 0.70466324
0.67880747 0.84086097 0.37345709
0.83568369 0.16148606 0.70650358
0.16657217 0.83713845 0.37425859
0.82623707 0.66744529 0.70584278
0.16265202 0.33118606 0.37665954
0.00958666 0.00638268 0.04011014
0.66686003 0.33083117 0.37157718
0.49797236 0.99827990 0.04635688
0.49626674 0.49575964 0.04174364
0.00690751 0.50433372 0.04807628
0.33502724 0.67671168 0.70705622
0.33840678 0.17001073 0.70849293
0.67345026 0.83593708 0.36882893
0.83748739 0.16979717 0.71488600
0.17103774 0.83654477 0.37846830
0.83320298 0.67252804 0.70308212
0.16650831 0.33323406 0.37533230
0.00287871 0.00370407 0.03998814
0.66681176 0.33122878 0.37800353
0.49092802 0.99528746 0.04130483
0.50147392 0.50214150 0.04319718
0.00103151 0.49854560 0.04432755
0.33409042 0.67217185 0.70893213
0.33856515 0.17532877 0.71036535
0.66690401 0.83123645 0.36974175
0.83733987 0.17285815 0.71620828
0.17183507 0.83308713 0.37903042
0.83574357 0.66813080 0.70883016
0.16596329 0.33110247 0.37258047
0.99662897 0.99680421 0.04132529
0.66662116 0.33202283 0.37828488
0.48759785 0.99175607 0.03746730
0.50669808 0.50745545 0.04446800
0.99530223 0.49706726 0.03972319
0.32900206 0.66198256 0.71042861
0.33702252 0.17705998 0.70464412
0.66988140 0.83628389 0.37304053
0.83569460 0.16817633 0.70902552
0.17207739 0.83711762 0.37857937
0.82731145 0.65713496 0.71315679
0.15914082 0.32562056 0.37141019
0.99765100 0.99770826 0.04207281
0.66458526 0.33008286 0.37277399
0.49186120 0.98868470 0.03987034
0.50686047 0.50834016 0.04581637
0.99506316 0.50105452 0.04027538
0.32501258 0.65943870 0.70759088
0.33126417 0.16931229 0.69815083
0.67602893 0.84477817 0.37027742
0.83753885 0.16686566 0.70549975
0.17249459 0.84402070 0.37999946
0.82260711 0.65609574 0.70736834
0.15364298 0.32471662 0.37205366
0.00196624 0.00364583 0.04086338
0.66751927 0.33016364 0.37081827
0.49729076 0.98790540 0.04329609
0.51034261 0.51280542 0.04789987
0.00352733 0.50555259 0.04202398
0.32683597 0.66451782 0.70586783
0.33003653 0.16164626 0.70126393
0.67175922 0.84215363 0.36438112
0.84081442 0.17585170 0.71345824
0.17525162 0.84578206 0.38067308
0.82683663 0.66049107 0.70071948
0.15861413 0.33237480 0.37074379
0.00283091 0.00248139 0.04176219
0.67184115 0.33370702 0.37628918
0.49551373 0.99258516 0.04151979
0.51656007 0.51320784 0.04741888
0.00531884 0.50021021 0.04073229
0.33317399 0.66895520 0.70590242
0.32985733 0.16021058 0.70906845
0.66162079 0.83120528 0.36749803
0.84420875 0.18340866 0.72168572
0.17543224 0.83884883 0.37984459
0.83314566 0.66416764 0.70333257
0.16570197 0.33565763 0.37311521
0.99970353 0.99681970 0.04258313
0.67114114 0.33854997 0.38053738
0.48645170 0.99340769 0.03694189
0.51500363 0.50947890 0.04290451
0.99467829 0.49009908 0.03847955
0.33623883 0.66619062 0.70749561
0.33029868 0.16257160 0.71198767
0.65936248 0.82532460 0.37685880
0.84499686 0.17885276 0.71484596
0.17319488 0.83048256 0.37790861
0.83436929 0.66409001 0.71244109
0.16374211 0.32947839 0.37697054
0.99910562 0.99733456 0.04004128
0.66668652 0.34362730 0.37465880
0.48375956 0.99305651 0.03911422
0.50867036 0.50729718 0.04028398
0.98789022 0.49189843 0.03786854
0.33632683 0.66405750 0.70917473
0.33533625 0.16107464 0.70563710
0.66455086 0.82745170 0.38368839
0.84196863 0.16925743 0.70131391
0.17468302 0.83326421 0.38010734
0.82513580 0.65928728 0.71468494
0.15628829 0.32491788 0.37554781
0.00330278 0.00731553 0.03606260
0.66349668 0.34224146 0.36723040
0.49326943 0.99990595 0.04587165
0.50645835 0.50532550 0.04146808
0.99211411 0.49839820 0.04012837
0.34130772 0.67354177 0.70462458
0.33257505 0.15335518 0.70111429
0.66986210 0.82933643 0.38287974
0.84483967 0.16490973 0.70177253
0.17797666 0.84255929 0.38226505
0.81748442 0.66121535 0.70672718
0.15665823 0.33444741 0.37198788
0.00620522 0.01726343 0.03180615
0.66530649 0.33577929 0.36542949
0.50105555 0.00708148 0.04760430
0.50716405 0.50551629 0.04539852
0.00217968 0.49717818 0.04467598
0.34525693 0.68518619 0.70176828
0.32885462 0.14764929 0.70999451
0.66565022 0.82552730 0.37730098
0.84437278 0.16967670 0.71150498
0.17682907 0.84404623 0.37833575
0.82238177 0.66763723 0.70216140
0.16797741 0.34630034 0.37088003
0.00381631 0.01394173 0.03337173
0.66127145 0.32953438 0.37207740
0.49762559 0.00908983 0.04088314
0.50983212 0.50230007 0.04743942
0.00169530 0.49098536 0.04620760
0.34293897 0.68135588 0.70627005
0.33167099 0.15402898 0.72043479
0.65694628 0.82139440 0.37914599
0.83618974 0.17500274 0.71273822
0.17100373 0.83232048 0.37176525
0.83674890 0.67170620 0.70718585
0.17430748 0.34367012 0.37239089
0.99393761 0.99891072 0.03929248
0.66007972 0.33484339 0.37653180
0.48796575 0.99960730 0.03582039
0.50868572 0.49641562 0.04440047
0.99465019 0.48868461 0.04292706
0.34070704 0.66948337 0.71018846
0.33130683 0.16157474 0.71776105
0.65852091 0.82168041 0.38763113
0.83309864 0.17215768 0.70437859
0.16565869 0.82613737 0.36614433
0.84251278 0.67204756 0.71214844
0.16453578 0.32585839 0.37484481
0.98837392 0.98994592 0.04460413
0.67021306 0.34125785 0.37084609
0.48364559 0.98647373 0.03786702
0.49642026 0.49581937 0.04334041
0.99628741 0.49454478 0.03901759
0.34215184 0.66882985 0.70812655
0.33649218 0.16370009 0.70710923
0.66475114 0.82362151 0.38883912
0.83376560 0.16613755 0.69866368
0.16996306 0.83674119 0.36480632
0.83356702 0.66741989 0.71079367
0.15369089 0.31432077 0.37596654
0.99509146 0.99655964 0.04762723
0.67738789 0.34137710 0.36768029
0.49316420 0.99193571 0.03628636
0.49012065 0.49944396 0.04705696
0.00337889 0.50220083 0.04023280
0.34654639 0.67932629 0.70456264
0.33610479 0.15934768 0.70535551
0.66605376 0.82810476 0.37568384
0.83507070 0.16473245 0.70457327
0.17528789 0.85066237 0.36416827
0.82824437 0.67110953 0.69968936
0.15773479 0.32216862 0.37788482
0.00346389 0.00782688 0.04383437
0.67514535 0.33813512 0.37517178
0.50822120 0.00583630 0.03233082
0.49552781 0.50327833 0.04366376
0.01093214 0.50452650 0.04688398
0.34416617 0.68098984 0.71299799
0.32634749 0.16073066 0.71526823
0.65993857 0.82906406 0.36205396
0.83456400 0.16867426 0.71194988
0.17178216 0.85036653 0.36160560
0.82476036 0.66439647 0.69699128
0.17459043 0.34100248 0.37944194
0.00328535 0.99901772 0.04383420
0.67655419 0.33723861 0.38340111
0.51459018 0.01325174 0.03349375
0.50012361 0.49874172 0.03261763
0.01229825 0.50610724 0.05132732
0.33172566 0.67241587 0.72335415
0.32242084 0.17101866 0.71708394
0.65714007 0.83333658 0.36122012
0.82675890 0.16821840 0.70613978
0.16054572 0.83460369 0.36281644
0.82068479 0.64958897 0.71153502
0.18236084 0.34568852 0.38158609
0.99958206 0.98821430 0.04632202
0.68138988 0.33921332 0.38518778
0.51131944 0.01218606 0.04133841
0.49516481 0.48731348 0.02356618
0.00342800 0.50374554 0.05027847
0.32038225 0.65873037 0.71859110
0.32554703 0.18130931 0.70680177
0.66943379 0.84148106 0.37193152
0.82596147 0.16222178 0.69531607
0.15425179 0.82146604 0.36584203
0.82907447 0.66056754 0.72147947
0.17146036 0.33103904 0.37950223
0.99990871 0.99613329 0.04512192
0.68396309 0.34250750 0.37706894
0.50377171 0.00238258 0.05212157
0.48701287 0.48349986 0.02265903
0.99982990 0.50212501 0.04735869
0.32209970 0.65666283 0.70735992
0.33691325 0.18406063 0.70124655
0.68194486 0.84373467 0.37867902
0.83507527 0.16149877 0.69217678
0.15971478 0.83095116 0.36539499
0.84336690 0.68111173 0.72236282
0.16793550 0.32584581 0.37549377
0.99765085 0.00129263 0.04473786
0.67167073 0.33238486 0.36931580
0.50543386 0.99675613 0.05709108
0.48407142 0.49086843 0.02852209
0.00259352 0.50398397 0.04556161
0.32679346 0.66495745 0.70284773
0.34834628 0.18288992 0.70529342
0.67943165 0.83892702 0.37487191
0.84188509 0.17051184 0.69837443
0.16827168 0.84222720 0.36828948
0.84902248 0.68541924 0.71449176
0.17871460 0.33783487 0.37176274
0.99083152 0.99328733 0.04548124
0.65505482 0.31513460 0.37052099
0.51932305 0.99965912 0.05159600
0.48667818 0.49954905 0.03443226
0.00438649 0.50174234 0.04325244
0.32088485 0.66629648 0.71021863
0.34734114 0.17902002 0.71578293
0.66653553 0.83725809 0.36629756
0.83772587 0.17937774 0.70801207
0.16751792 0.83782652 0.37339302
0.85084316 0.67619504 0.70537820
0.18987851 0.34633019 0.37528601
0.98755050 0.98525446 0.04345190
0.65296244 0.31370740 0.37702687
0.51947447 0.99927043 0.04566423
0.49002247 0.49919181 0.03615006
0.00121425 0.49729244 0.04037698
0.30914803 0.65432384 0.71869582
0.33661890 0.17345738 0.71711201
0.65656363 0.83830492 0.36534325
0.82350577 0.17371667 0.70774614
0.15969652 0.82748860 0.37628554
0.85289939 0.66657791 0.70595598
0.19396962 0.34164827 0.38350428
0.98600064 0.98559794 0.04108997
0.65683121 0.32725959 0.38109886
0.50445734 0.99893246 0.04743053
0.49745859 0.49548285 0.03335829
0.99604769 0.49302182 0.03694515
0.30868208 0.64822850 0.71588920
0.32484063 0.16482266 0.70754579
0.66200521 0.84087471 0.37258604
0.82089658 0.16046047 0.70335787
0.15149442 0.82376962 0.37452254
0.85920397 0.67200612 0.71324991
0.19033252 0.33563874 0.38296408
0.98498074 0.99518071 0.04126944
0.65949186 0.33767906 0.38072887
0.50108765 0.00010944 0.04870201
0.50185794 0.49916476 0.03069028
0.00015667 0.49513801 0.03778313
0.32319293 0.66046547 0.70892044
0.32720145 0.16064661 0.69971437
0.67377453 0.83891530 0.37832774
0.83077077 0.15863034 0.70345782
0.15197958 0.82837700 0.37213408
0.85732196 0.67800030 0.71132448
0.18362023 0.33846955 0.37465543
0.99254990 0.00306501 0.04283459
0.66122606 0.33684971 0.37654709
0.50907412 0.00085825 0.04298666
0.49505795 0.50270502 0.03554479
0.00579519 0.50367297 0.04230045
0.33385307 0.67272994 0.70768887
0.33807676 0.16639847 0.70316671
0.67223322 0.83494922 0.37970731
0.83256173 0.16344188 0.70673793
0.15959951 0.82973252 0.37516775
0.84677902 0.67358504 0.70284819
0.17718478 0.34364060 0.37432663
0.00389256 0.00277600 0.04312726
0.66508164 0.32988000 0.37449204
0.51626430 0.00302684 0.03586922
0.48662785 0.49873503 0.03936766
0.00042331 0.50511411 0.04230372
0.33439125 0.67301282 0.70984594
0.33664105 0.17292254 0.71286830
0.66178005 0.83312802 0.37677189
0.82679418 0.15997988 0.70851426
0.15823560 0.81847383 0.37716562
0.83961455 0.66877635 0.70122454
0.17521213 0.34691659 0.38093475
0.00785522 0.00064299 0.04284009
0.67211534 0.33214758 0.37169153
0.51313350 0.00605106 0.03865504
0.48900986 0.49196649 0.03923642
0.99373310 0.50052858 0.04007649
0.33011311 0.66698618 0.71050153
0.32559200 0.17327524 0.71369100
0.65933696 0.83268562 0.37865992
0.82366286 0.15325203 0.70550900
0.15207694 0.81083167 0.37515838
0.83851118 0.67336090 0.70671443
0.17469348 0.34390329 0.38356486
0.00316142 0.00168077 0.04156062
0.67056982 0.33938974 0.37332951
0.50474813 0.01000764 0.04493723
0.49700984 0.48817043 0.04135344
0.99244066 0.49739998 0.04019148
0.33344825 0.66838250 0.70624291
0.32695445 0.17237694 0.71021002
0.66886482 0.83713537 0.38088017
0.82791727 0.15197297 0.70368457
0.15341866 0.81617146 0.37171961
0.83997708 0.67907489 0.71042417
0.16717921 0.33599136 0.37568407
0.99845806 0.00503633 0.04007055
0.66698551 0.34198942 0.37385163
0.50054761 0.01265343 0.04413170
0.49909834 0.49212507 0.04633993
0.99497894 0.49737276 0.04276833
0.34225360 0.67328290 0.70439520
0.33546927 0.17090852 0.70847995
0.67469207 0.83951436 0.37979522
0.83544331 0.15692076 0.70827098
0.16369837 0.82665089 0.36990802
0.83843888 0.67386855 0.70746436
0.15990870 0.33284746 0.36829226
0.00221114 0.00661583 0.04101600
0.66753136 0.33705921 0.37201029
0.50072609 0.00656470 0.03860693
0.49572686 0.49657155 0.04842044
0.00096970 0.50141607 0.04301350
0.34529758 0.67129924 0.70621219
0.34096370 0.16853065 0.70799422
0.66833259 0.83421253 0.37535088
0.83701230 0.16572213 0.71418664
0.17291338 0.83026103 0.37309980
0.82910057 0.66052581 0.70455636
0.16077209 0.33750245 0.37115939
0.00464061 0.00131066 0.03943899
0.66777089 0.33135298 0.37379471
0.50307029 0.00103979 0.03481395
0.49616479 0.49382690 0.04452843
0.00098897 0.50518499 0.03945369
0.34037744 0.66661455 0.70820198
0.33700333 0.16548467 0.70771747
0.66208350 0.83237291 0.36986481
0.83480245 0.17169125 0.71342925
0.17218613 0.82928466 0.37689407
0.82610677 0.65562899 0.70574954
0.16299797 0.33821002 0.37561883
0.00255984 0.99763783 0.03618786
0.66706088 0.33213274 0.37769059
0.49975057 0.00055557 0.03868077
0.49954478 0.49293648 0.04276522
0.00021424 0.50406070 0.03883897
0.33417988 0.66357082 0.71043242
0.33137944 0.16221943 0.70492145
0.66684412 0.83884183 0.37127253
0.83353468 0.17192452 0.70652572
0.16756014 0.83557381 0.37965883
0.82973549 0.66023483 0.70708279
0.16391220 0.32965149 0.37354917
0.00158766 0.99913981 0.03783323
0.66636695 0.33619280 0.37979926
0.49108344 0.99850247 0.04412487
0.50352717 0.49989747 0.04423158
0.00605903 0.50349621 0.04111834
0.33479308 0.66527265 0.70874535
0.33258252 0.16279073 0.70287204
0.67498352 0.84381762 0.37361976
0.83858337 0.17417853 0.70520515
0.16964918 0.84576743 0.37972218
0.83181354 0.66157458 0.70934033
0.16049872 0.32105647 0.36684947
0.00126195 0.00187101 0.04371569
0.66600948 0.33439232 0.37825883
0.48898105 0.99412508 0.04367379
0.50411508 0.50670284 0.04438499
0.01133060 0.50641913 0.04095913
0.33718227 0.66772465 0.70767702
0.33554699 0.16769707 0.70371157
0.67657590 0.84070244 0.37028604
0.84631738 0.17728748 0.70932093
0.17767245 0.84834234 0.37741742
0.82869853 0.65790808 0.70894704
0.15486685 0.32229244 0.36685157
0.00154100 0.00237474 0.04786711
0.66763543 0.32939685 0.37405567
0.49442638 0.99193780 0.04085161
0.50006000 0.50611457 0.04384577
0.00781626 0.50940479 0.03857987
0.33555688 0.66512756 0.70906382
0.33522084 0.17171524 0.70740333
0.66952940 0.83218047 0.36818589
0.84232881 0.17430417 0.71266465
0.18124507 0.84342054 0.37672129
0.82340878 0.65515033 0.70566251
0.15544882 0.32966810 0.37606311
0.00360295 0.00046442 0.04618394
0.67004664 0.33002789 0.37205222
0.49780851 0.99260370 0.03936377
0.49935438 0.50303671 0.04195885
0.00071715 0.50886423 0.03546303
0.33152634 0.66114615 0.70899306
0.32915894 0.16854114 0.70985243
0.66443248 0.82909783 0.37108733
0.83483312 0.16935983 0.71232786
0.17489780 0.83996226 0.37881943
0.82274761 0.66043638 0.70271662
0.16176212 0.33167882 0.38024136
0.00524760 0.00007309 0.04268480
0.67197294 0.33660579 0.37301805
0.49472179 0.99377636 0.04267289
0.50407793 0.50306043 0.04231888
0.99756904 0.50206191 0.03486833
0.32770707 0.66058931 0.70775632
0.32556703 0.16355645 0.70566628
0.66577703 0.83559200 0.37710190
0.83613156 0.16798381 0.70916220
0.16860772 0.84023128 0.38072152
0.82752074 0.67087040 0.70219122
0.16443383 0.32553851 0.37682163
0.00156015 0.00019528 0.04161487
0.67133998 0.34105889 0.37591835
0.48869641 0.99325997 0.04653643
0.51047138 0.50790177 0.04611624
0.00117613 0.49690059 0.03946335
0.32908669 0.66404242 0.70667914
0.33269897 0.16390759 0.70132391
0.66688088 0.83846461 0.37831456
0.84176556 0.16993024 0.70987058
0.17298134 0.84071181 0.38068546
0.82983500 0.67182132 0.70513131
0.16171688 0.32401912 0.37442665
0.99614355 0.99836186 0.04092018
0.66978679 0.33968648 0.37395414
0.48812828 0.99557799 0.04393368
0.51529706 0.51122286 0.04676156
0.00178123 0.49375753 0.04224424
0.33414478 0.66620328 0.70590834
0.33683490 0.16308571 0.70352932
0.66065482 0.82892636 0.37416122
0.84210598 0.17182056 0.71420901
0.17694539 0.83536766 0.37963314
0.82704457 0.66202440 0.70946914
0.16186166 0.33351813 0.37592099
0.99615898 0.99772547 0.03917264
0.67006194 0.33623270 0.36892493
0.49453527 0.00036560 0.03755557
0.51363046 0.50811223 0.04340400
0.99653712 0.49126762 0.04115243
0.33403368 0.66466344 0.70282420
0.33310579 0.15950542 0.70804739
0.65485039 0.81570665 0.37245052
0.83533246 0.17104002 0.71570389
0.17095183 0.82918107 0.37951753
0.82443433 0.65932954 0.70921153
0.16744762 0.34072266 0.37914466
0.00253321 0.00170066 0.03663327
0.66993054 0.33590096 0.36990323
0.50145080 0.00184124 0.03335571
0.50828652 0.50365258 0.04120052
0.99112856 0.49064131 0.04166126
0.33048854 0.66640380 0.69970355
0.33152910 0.16069728 0.71140654
0.66071475 0.81756410 0.37612158
0.83073949 0.17000666 0.71184552
0.16519931 0.83362136 0.37871053
0.82634963 0.66524854 0.70844229
0.17148445 0.33471478 0.37824978
0.00892418 0.00885194 0.03753594
0.66742099 0.33895316 0.37440212
0.50183817 0.00115931 0.03638672
0.50716252 0.50247999 0.04207739
0.99399664 0.49015095 0.04638614
0.32942095 0.67190555 0.70135049
0.33490356 0.16628698 0.71093456
0.67118504 0.83163863 0.38254345
0.83631835 0.16933198 0.70595907
0.16430377 0.84513104 0.37541914
0.83559863 0.67896207 0.70951685
0.17240968 0.32885921 0.36912880
0.00689229 0.01067109 0.04153924
0.66631733 0.33835480 0.37539161
0.49458160 0.99482074 0.04180410
0.50978237 0.50614270 0.04419671
0.00407533 0.49006938 0.05085602
0.33422670 0.67597335 0.70370886
0.33943861 0.16838565 0.71319195
0.67271235 0.83401659 0.38568864
0.84121780 0.16935160 0.70779212
0.16578128 0.84730884 0.37030219
0.84339674 0.68498542 0.71190404
0.17096947 0.33483250 0.36201172
0.99885340 0.00312476 0.04031660
0.66622231 0.33320515 0.37334154
0.49246987 0.99288440 0.03783332
0.50572180 0.50568096 0.04097238
0.99938974 0.49004456 0.04799595
0.34202049 0.67616913 0.70672437
0.33805968 0.16674113 0.72166851
0.67002236 0.82631595 0.38036103
0.83701608 0.16595787 0.71064817
0.16682556 0.83876276 0.36390286
0.84588024 0.67839348 0.71149051
0.16561061 0.34417472 0.36679805
0.00039822 0.99758678 0.03236315
0.66542704 0.32878225 0.37065629
0.49998769 0.00017851 0.03153831
0.49071403 0.49888013 0.03448022
0.98890228 0.49481066 0.04414671
0.34501410 0.67315309 0.71150662
0.33069725 0.16446134 0.72523550
0.66842929 0.82595718 0.37730845
0.82589654 0.15500557 0.70318617
0.16503870 0.82842020 0.36119132
0.84011712 0.66820591 0.70933562
0.16114825 0.34455616 0.38045204
0.00912819 0.99904134 0.02821726
0.66114194 0.32685427 0.37279230
0.50418955 0.00378714 0.03800905
0.48223783 0.49766605 0.03459811
0.99755831 0.50724647 0.04806040
0.34283396 0.67317997 0.71199667
0.32738414 0.16201024 0.71890900
0.67117694 0.83914209 0.38060366
0.81609967 0.14830367 0.69278373
0.16086514 0.82825985 0.36314647
0.83325426 0.66396333 0.71058890
0.16281587 0.33409722 0.38173612
0.00954146 0.00259337 0.03203271
0.65479451 0.32421275 0.37594160
0.50317617 0.99917343 0.05255622
0.48989872 0.50074421 0.04060644
0.01083573 0.50681586 0.05229430
0.33573971 0.67195572 0.71160093
0.33055567 0.16191373 0.70803879
0.67449605 0.85356864 0.38394136
0.81774386 0.15577876 0.68772594
0.15930590 0.83319953 0.36628074
0.83760108 0.66950476 0.71360353
0.17021016 0.32878426 0.37305785
0.99920584 0.00126687 0.03934093
0.65419563 0.32235416 0.37579298
0.50654662 0.99886107 0.05676962
0.50187085 0.50006571 0.04426098
0.01327610 0.49656417 0.05149441
0.32966318 0.66342285 0.71271079
0.33510546 0.16638355 0.70312082
0.67798513 0.85374366 0.37983554
0.82730321 0.16969595 0.69376126
0.15888188 0.83220696 0.36436664
0.84698315 0.67374931 0.71750722
0.18061644 0.33940833 0.37120844
0.99012127 0.99512207 0.04697196
0.66009355 0.32228046 0.37257141
0.51562916 0.00430833 0.04730203
0.50017501 0.49488619 0.03743622
0.00528373 0.49436483 0.04155381
0.33123564 0.65574221 0.71233680
0.33442288 0.16840936 0.70623023
0.67878117 0.84366734 0.37108709
0.83433793 0.18125236 0.70445098
0.15667163 0.82595167 0.35992886
0.84928946 0.66297343 0.71936989
0.18660325 0.35205160 0.37849646
0.99174444 0.99223618 0.05161609
0.66234110 0.32319015 0.37249521
0.52004376 0.00670289 0.04120385
0.48421842 0.48746867 0.02880462
0.99566521 0.50048896 0.03216214
0.33308881 0.66093430 0.71133791
0.33139167 0.16354831 0.70749820
0.68344916 0.83272549 0.36860704
0.83172888 0.18350351 0.70483283
0.15600768 0.82945411 0.36356328
0.84870620 0.65699537 0.70918838
0.18338601 0.34896119 0.38672746
0.99442225 0.99432190 0.05330230
0.65098409 0.32014305 0.38213998
0.51836514 0.99983526 0.04944620
0.47097605 0.48820943 0.03084595
0.98788081 0.49594218 0.03383791
0.32888699 0.66703446 0.70821392
0.33106651 0.16124466 0.70588002
0.68600985 0.83628780 0.37123962
0.82400177 0.17526353 0.69682611
0.16027504 0.84655887 0.37196121
0.85136591 0.66501467 0.70270918
0.17838947 0.33438595 0.38653082
0.98893607 0.99500038 0.05555368
0.64249911 0.32328840 0.38449223
0.52216872 0.99901803 0.05763923
0.47523938 0.49430018 0.03423347
0.99232017 0.49033598 0.03914537
0.31825619 0.66271854 0.71024716
0.33265592 0.16779251 0.70153321
0.67870217 0.84396175 0.37591034
0.82410305 0.16662344 0.69368456
0.16325214 0.85457111 0.37812795
0.85795187 0.67867774 0.70794113
0.18422573 0.33643150 0.37563028
0.98698336 0.99286637 0.05668176
0.64948090 0.33131754 0.37974252
0.52803542 0.01128759 0.05038479
0.49249745 0.49505151 0.03159396
0.99943732 0.49440064 0.04145620
0.31258034 0.65277711 0.71472596
0.33076779 0.17014314 0.69485819
0.66874224 0.84244772 0.37619373
0.83188615 0.16305290 0.70199709
0.16522696 0.84074938 0.38061634
0.85631723 0.68489127 0.71230042
0.18761677 0.34705348 0.36646240
0.99287269 0.98984934 0.05158785
0.66579568 0.34249775 0.37923226
0.52475190 0.01834578 0.03946783
0.50192909 0.49681649 0.03117215
0.00616558 0.51695276 0.04565737
0.31816681 0.65047873 0.71561533
0.32982293 0.16565859 0.69619601
0.66397108 0.83506661 0.37161534
0.82720315 0.15785430 0.71106445
0.16673331 0.82242668 0.37624181
0.84997138 0.68120865 0.71469613
0.17808645 0.34392706 0.36900808
0.00037040 0.98969204 0.04183811
0.67510081 0.34661339 0.37807044
0.51519363 0.01716338 0.03730933
0.49614319 0.49535526 0.03433107
0.00861158 0.52165345 0.04679428
0.32706989 0.65983756 0.71125882
0.33045418 0.16448397 0.70436892
0.66411310 0.82854471 0.37182791
0.82010234 0.15096836 0.70961978
0.16275579 0.81654410 0.37342444
0.83983764 0.67138799 0.71189057
0.16784595 0.32890055 0.37835507
0.99968472 0.98787652 0.03877106
0.67320213 0.34335598 0.37556658
0.50745552 0.01519348 0.04367692
0.48746442 0.49192588 0.03950327
0.00118716 0.50284613 0.04771192
0.33032921 0.66818875 0.70099300
0.32991305 0.16667240 0.71445062
0.66586768 0.83390822 0.37645624
0.82292190 0.14790784 0.70404737
0.15955988 0.82271369 0.37255971
0.83488951 0.67077701 0.70957411
0.16717147 0.32138410 0.38028077
0.99435443 0.98534698 0.03989665
0.67553446 0.33954166 0.37070190
0.50470745 0.01127899 0.04729443
0.49118641 0.49398547 0.04476736
0.99039074 0.48453083 0.04701972
0.33140347 0.67220260 0.69843513
0.33324814 0.16567499 0.71740432
0.66231133 0.84192029 0.37730706
0.82928250 0.15184660 0.70491142
0.16171251 0.82864340 0.37448577
0.83921133 0.67887200 0.71124126
0.17232872 0.33258678 0.37519981
0.99450563 0.98932463 0.03771546
0.68266775 0.33901794 0.36627773
0.50031573 0.00943696 0.04009249
0.50326718 0.49531246 0.04587013
0.99139302 0.48767299 0.04251859
0.33440328 0.67254360 0.70589394
0.33841017 0.16587588 0.70815138
0.65649601 0.83610333 0.37493233
0.83505033 0.15974711 0.71025995
0.16414818 0.82556807 0.37674345
0.83898142 0.68070429 0.71193320
0.17655048 0.35432537 0.37283916
0.99939903 0.99929538 0.03625289
0.68502419 0.34252114 0.36949670
0.49651828 0.00721187 0.03580820
0.50365463 0.49452725 0.04369790
0.00519934 0.50395211 0.03947771
0.33793605 0.66450445 0.71216977
0.33933094 0.16875472 0.70298532
0.66200427 0.82748297 0.37390202
0.83618966 0.16481748 0.71462747
0.16572227 0.82375206 0.37400387
0.83239070 0.67404016 0.71047291
0.17118888 0.35126610 0.37757477
0.00287636 0.00802768 0.03820861
0.67796162 0.33810193 0.37642269
0.50046122 0.00748273 0.03821223
0.49133784 0.49412276 0.04058723
0.00880007 0.50970469 0.03635605
0.33925145 0.66368866 0.71498927
0.33835415 0.17295821 0.70674103
0.67021246 0.82366189 0.37443568
0.83257634 0.16449983 0.71209240
0.16941088 0.83220933 0.37080196
0.82809550 0.67040413 0.70417445
0.16064343 0.32962554 0.38138187
0.00294856 0.00902860 0.04197430
0.66704261 0.32972903 0.38075716
0.50057590 0.00428292 0.04019899
0.48794599 0.49741327 0.04240158
0.99745735 0.50246993 0.03799570
0.33812776 0.67113244 0.71299673
0.34000983 0.17937972 0.71038040
0.67153587 0.82817046 0.37523168
0.82995851 0.16284080 0.70622013
0.17210897 0.84103903 0.37326721
0.82855039 0.67390737 0.69764531
0.15885590 0.32114738 0.37638966
0.00335981 0.00582180 0.04402020
0.66282959 0.32774066 0.38011496
0.49501945 0.99970747 0.03807946
0.50123949 0.50378098 0.04610841
0.99364736 0.49573448 0.04291816
0.33647935 0.67215929 0.71169744
0.34139276 0.17834477 0.70917164
0.66855119 0.83910825 0.37394381
0.83114830 0.16566401 0.70534672
0.17133846 0.83961276 0.37657884
0.83066756 0.67200518 0.70245058
0.16128709 0.32885566 0.36837164
0.00511501 0.00365042 0.04364677
0.66747299 0.32980328 0.37815827
0.49108579 0.99919660 0.03538086
0.51392119 0.50537747 0.04711059
0.99851005 0.49677827 0.04093477
0.33586116 0.66675820 0.71415657
0.33892666 0.17235243 0.70220349
0.66548462 0.83950003 0.37133496
0.83560194 0.17156448 0.70910826
0.16902986 0.83361912 0.37690342
0.82659277 0.65904892 0.70886115
0.16325434 0.33547609 0.36911270
0.00596621 0.00249413 0.04402478
0.67054940 0.33480909 0.37876281
0.48902126 0.99677291 0.03877777
0.51056219 0.50175433 0.04586097
0.00552172 0.50509198 0.03663112
0.33643719 0.66088767 0.71344520
0.33520662 0.16945029 0.69977249
0.66722506 0.83529718 0.37208344
0.84254147 0.17714335 0.71356893
0.16812799 0.83360601 0.37726425
0.82429877 0.65232741 0.70731230
0.15856463 0.32604613 0.37507312
0.00490600 0.00108291 0.04472622
0.66716374 0.33352559 0.37712386
0.48782706 0.99232149 0.04381571
0.50279504 0.50003116 0.04263238
0.00474883 0.50905784 0.03556480
0.33748490 0.66384584 0.70885193
0.33237215 0.16741836 0.70522282
0.67044915 0.83437104 0.37499515
0.84660593 0.17866580 0.71422793
0.17026562 0.83855764 0.37918723
0.82396269 0.65238932 0.70291500
0.15585729 0.31579825 0.37664705
0.00344619 0.99754007 0.04351911
0.66156913 0.32505809 0.37359306
0.48916626 0.99194206 0.04415355
0.50483843 0.50311863 0.04270508
0.99770138 0.50388737 0.03827578
0.33874898 0.67463214 0.70452849
0.32964779 0.16522441 0.70797165
0.66880069 0.83328298 0.37276530
0.84475436 0.17731342 0.71259797
0.17427002 0.84191789 0.38093268
0.82407654 0.65657981 0.70322898
0.16041672 0.32316561 0.37413682
0.00165563 0.99655838 0.04051681
0.66273714 0.32503962 0.37216722
0.49331928 0.99367649 0.04103323
0.50969132 0.50669681 0.04506357
0.99599566 0.49763345 0.04133798
0.33848218 0.67668480 0.70517743
0.32905400 0.16157936 0.70435991
0.66486939 0.83453490 0.36764436
0.83833293 0.17546359 0.71221849
0.17561709 0.84028311 0.38281621
0.82556657 0.65989823 0.71152299
0.16555281 0.33921393 0.37103552
0.00139662 0.00241767 0.03906697
0.67017092 0.33619080 0.37292894
0.49768202 0.99351504 0.03934858
0.50988981 0.50711342 0.04278420
0.00126489 0.49665100 0.03925626
0.33478424 0.66753729 0.70869939
0.32859898 0.15797047 0.70069161
0.66434016 0.83462501 0.36821410
0.83728165 0.17371185 0.71235539
0.17441650 0.83798788 0.38192524
0.82854578 0.65988815 0.71621103
0.16819981 0.34738302 0.37116767
0.00152180 0.00813942 0.04007121
0.67103832 0.34292284 0.37526128
0.50128831 0.99398778 0.04199215
0.50562868 0.50883987 0.04111845
0.00572062 0.50049751 0.03827751
0.33415499 0.66433769 0.70613677
0.32676856 0.15612749 0.70483566
0.66952468 0.83210843 0.37519876
0.84185387 0.17163186 0.71217302
0.17357160 0.83859328 0.37653582
0.83257209 0.66305708 0.71188390
0.16244282 0.33685911 0.37278429
0.00011917 0.00613562 0.04034741
0.66415867 0.33749975 0.37521311
0.50663250 0.00066051 0.04295329
0.49840567 0.50914758 0.04311431
0.00080410 0.49842559 0.04299121
0.33537029 0.66997833 0.70210563
0.32727140 0.15730167 0.71341127
0.66928728 0.82843190 0.38021551
0.83987964 0.16924567 0.70983975
0.17168308 0.83913489 0.37362378
0.83787771 0.67231824 0.70503296
0.15621775 0.32307413 0.37227571
0.99821134 0.99818539 0.04121084
0.66219574 0.32970618 0.37299923
0.50782851 0.00535313 0.04026195
0.49721663 0.50533436 0.04473109
0.99144810 0.49212258 0.04694787
0.33329935 0.67488775 0.70252510
0.33171954 0.16557074 0.71698810
0.66076451 0.82542360 0.37612759
0.83421477 0.16748941 0.70756082
0.16481009 0.83268082 0.37488431
0.83772935 0.67598157 0.70287182
0.16447345 0.32680094 0.37293994
0.99931321 0.99554982 0.04192063
0.66952952 0.33305417 0.37162638
0.50307227 0.00193371 0.03847167
0.50329413 0.50016134 0.04315026
0.99260550 0.49259280 0.04553841
0.33166877 0.67110720 0.70655405
0.33425342 0.17026399 0.71482510
0.65972894 0.83043719 0.37410454
0.83153659 0.16633964 0.70723999
0.16108120 0.82820452 0.37456448
0.83370416 0.66984636 0.70692293
0.17685132 0.34157276 0.37548884
0.00418863 0.00178490 0.03908135
0.67727936 0.34298067 0.36986206
0.50006401 0.99937396 0.03846858
0.50328762 0.49419941 0.03918439
0.00425346 0.50010359 0.04156250
0.33109203 0.66274290 0.71020289
0.33318970 0.16686558 0.71188163
0.66751970 0.83886089 0.38091497
0.83143229 0.16469332 0.70682228
0.16459717 0.83284031 0.37157210
0.82961398 0.65975385 0.70834926
0.17906564 0.34771740 0.38026847
0.00658090 0.00264471 0.03638687
0.67466385 0.34480980 0.36683595
0.49725087 0.99928627 0.04075303
0.49528926 0.48944731 0.03605359
0.00990323 0.50678635 0.04397728
0.33194889 0.66096631 0.70826409
0.33001141 0.16533899 0.71294215
0.67024220 0.83918008 0.38662437
0.83275739 0.16249608 0.70701453
0.16655144 0.83866944 0.36844598
0.83372614 0.65995423 0.70516237
0.17090618 0.33747318 0.38244891
0.00599594 0.99814753 0.03608548
0.66602036 0.33472223 0.36535401
0.49427249 0.99953063 0.04324864
0.49033751 0.49305103 0.03676976
0.00228797 0.50517200 0.04899418
0.33346311 0.66669254 0.70645258
0.33374449 0.17050345 0.71370046
0.66654497 0.83509162 0.38563683
0.82866399 0.16240395 0.70502235
0.16456612 0.83781502 0.36912214
0.84252602 0.66833137 0.70595381
0.16451547 0.32580405 0.38160550
0.00344355 0.99669818 0.03654916
0.66510700 0.32532687 0.36988610
0.49626301 0.00192380 0.04296803
0.49132424 0.49895846 0.03852823
0.98861239 0.49625594 0.04603079
0.33649120 0.67485462 0.70789160
0.34246213 0.17837723 0.71145217
0.66364281 0.83136555 0.37733054
0.81946793 0.16348116 0.69953735
0.16301084 0.83151386 0.37124214
0.84435872 0.67637007 0.70854912
0.16855920 0.33047234 0.37930734
0.99890915 0.00096437 0.03733224
0.67231066 0.33115189 0.37865642
0.50385434 0.00287686 0.04341901
0.49287335 0.50161104 0.03791726
0.98773792 0.49251438 0.04181692
0.33603069 0.67347497 0.70800399
0.34586555 0.17647093 0.71018794
0.66861943 0.83476617 0.37169582
0.81543372 0.16228069 0.69670953
0.16211336 0.83114756 0.37214352
0.84536919 0.68160961 0.71323725
0.17607665 0.34063664 0.37735578
0.99570980 0.00701682 0.03821607
0.67426043 0.34353707 0.38249031
0.51181226 0.00364496 0.04677665
0.49479989 0.50408684 0.03335993
0.00079550 0.49782984 0.04139059
0.32888507 0.66086282 0.70843871
0.34232587 0.16272234 0.70907542
0.67770409 0.84467037 0.37714041
0.81642742 0.15841347 0.69523381
0.16073482 0.83630633 0.36930174
0.84746659 0.68092268 0.71806427
0.17667207 0.33906728 0.37583992
0.99158133 0.00254550 0.04283049
0.66727082 0.34251773 0.38048838
0.51530013 0.00615929 0.04897394
0.49764430 0.50794890 0.03239611
0.00984007 0.50510056 0.04417008
0.32533757 0.65310576 0.71112308
0.33942731 0.15544128 0.70951890
0.68204192 0.84196197 0.38380370
0.81648996 0.15463433 0.69813853
0.15729811 0.83723214 0.36412110
0.84966636 0.67724027 0.71826622
0.17257038 0.32703348 0.37299216
0.98666349 0.99024096 0.04796519
0.65812674 0.32817937 0.37922470
0.51339742 0.00590065 0.04416726
0.49863924 0.51024781 0.03738458
0.00379339 0.50534466 0.04032031
0.32705967 0.65631111 0.71362397
0.34275527 0.16942275 0.70937289
0.67244004 0.82945654 0.37876760
0.81559643 0.15639584 0.70455140
0.15442753 0.83042655 0.36915876
0.85632077 0.67714463 0.71465910
0.17227457 0.32131454 0.36868987
0.98416260 0.98597344 0.04838852
0.65366703 0.31658725 0.38278980
0.50933452 0.99832238 0.03865675
0.49759977 0.50565627 0.03739673
0.99865121 0.50143109 0.03445785
0.32847918 0.66215973 0.71178717
0.34681402 0.18665632 0.70359906
0.65878329 0.82451412 0.36547944
0.81988984 0.16374401 0.70624391
0.15007075 0.81639500 0.37960973
0.86066600 0.67961624 0.71208092
0.18530185 0.33276667 0.36651251
0.98633421 0.99369533 0.04579164
0.65924642 0.32320292 0.38607840
0.50095661 0.98866152 0.04279681
0.49807413 0.50011516 0.03365283
0.00637080 0.50379210 0.03720966
0.33241404 0.66396057 0.70598938
0.33860426 0.18186917 0.70050345
0.65901161 0.83771311 0.35899880
0.82955611 0.16649464 0.70689169
0.15060279 0.81251957 0.38104227
0.85227994 0.67875217 0.71251359
0.19758720 0.34786120 0.36806014
0.99245701 0.00169954 0.04268378
0.66235367 0.33352307 0.38259123
0.50489244 0.99763126 0.04923135
0.49777165 0.49837817 0.03042056
0.01253339 0.51114085 0.04217815
0.33610413 0.65776524 0.70884828
0.32019573 0.15827242 0.69824235
0.66536372 0.85677340 0.36834466
0.83286896 0.16454470 0.71047859
0.15896330 0.82083300 0.37677143
0.83789531 0.66563187 0.71159200
0.19232229 0.35275603 0.37217496
0.00256629 0.00290344 0.04175502
0.65459812 0.32822418 0.37372904
0.51503289 0.01364551 0.04937013
0.49974933 0.49820067 0.03466220
0.00836418 0.51874845 0.04401019
0.34025140 0.66182413 0.71334552
0.31840992 0.15062084 0.70113473
0.66749337 0.85802891 0.37949204
0.83030615 0.16162298 0.71512226
0.16439263 0.82693507 0.37505357
0.83423693 0.65442646 0.70664604
0.17363018 0.34671182 0.37316245
0.00857957 0.00271660 0.04220570
0.64694343 0.31655858 0.37072311
0.51331259 0.01338771 0.04335189
0.50124599 0.49134860 0.04772687
0.99641382 0.51347073 0.03774907
0.34086163 0.67514222 0.70932185
0.33297917 0.17224366 0.70748095
0.66262939 0.84230634 0.37323789
0.83549271 0.15791566 0.71505076
0.16429948 0.82018718 0.37741988
0.84023997 0.65720425 0.70132422
0.16576718 0.34384158 0.37706549
0.00720884 0.00616582 0.04072515
0.65750590 0.31920690 0.37689172
0.51056299 0.01054694 0.03669187
0.49536894 0.48106501 0.05736922
0.99081913 0.49533662 0.02867707
0.33051538 0.67122344 0.70423873
0.33516207 0.18368779 0.70768686
0.65801551 0.82763339 0.36199878
0.84123649 0.15417336 0.70935817
0.16814668 0.81867886 0.37953515
0.84639761 0.67413736 0.69804207
0.17207445 0.34803069 0.37949775
0.00677211 0.00540779 0.04116380
0.67134659 0.33404057 0.38236818
0.51204598 0.01227156 0.03771907
0.48400579 0.47776982 0.05393935
0.99629662 0.49181795 0.03500065
0.31919972 0.66372922 0.69968527
0.32616675 0.17396180 0.70540629
0.66452025 0.82950575 0.36846563
0.84625084 0.15700209 0.71049146
0.16972396 0.82722469 0.37977332
0.84181671 0.68668639 0.69842308
0.17643154 0.35010973 0.37936893
0.00502603 0.99800202 0.04349758
0.67383976 0.34869226 0.37726946
0.51011351 0.01674418 0.04052030
0.48734949 0.48870904 0.03870640
0.00338999 0.49700628 0.04325739
0.31606936 0.65928747 0.69939197
0.32200322 0.15473911 0.70578597
0.67660251 0.84202064 0.38082384
0.84399308 0.16052858 0.71621972
0.16678966 0.83345302 0.38004006
0.82855188 0.67610802 0.70176486
0.16883945 0.35010765 0.37418613
0.00308571 0.99633799 0.04587222
0.66966124 0.34724109 0.36808555
0.49996928 0.01516177 0.03947582
0.50192275 0.49992300 0.03399436
0.00596822 0.50082126 0.04592765
0.32028659 0.66213906 0.70555140
0.32191415 0.15232827 0.70852062
0.67238199 0.84612390 0.38304362
0.83643521 0.15613465 0.71444575
0.16389957 0.82994483 0.38023663
0.81843215 0.65857214 0.69793607
0.15754522 0.33957844 0.37060840
0.00255483 0.00259761 0.04769288
0.66639722 0.33362964 0.36896656
0.49014518 0.00455084 0.03609669
0.50708380 0.50198130 0.04282623
0.00702914 0.50285431 0.04241094
0.33025335 0.66772782 0.71345518
0.33282469 0.17410600 0.71203513
0.66054627 0.83632341 0.37368096
0.83652250 0.15800365 0.70896403
0.16368161 0.82361284 0.37920847
0.81713237 0.65440639 0.69766718
0.15428661 0.33075435 0.37107014
0.99862111 0.00242885 0.04742489
0.67199212 0.33055156 0.37679706
0.48991686 0.98978670 0.03420280
0.49954173 0.49515924 0.04963597
0.00816635 0.50419284 0.03934835
0.33700703 0.66496552 0.71681645
0.34547558 0.18891519 0.70918589
0.66451354 0.83175367 0.36946453
0.84177889 0.16634741 0.70328751
0.17079696 0.82556260 0.37702485
0.81854994 0.66371240 0.70239326
0.16004696 0.33363831 0.36988097
0.99873090 0.99885761 0.04205304
0.67746653 0.33269239 0.37885308
0.48729640 0.97854419 0.03654862
0.49893348 0.49533657 0.05000746
0.00693566 0.50617776 0.04049619
0.33751863 0.66016801 0.71446179
0.34454047 0.17664068 0.70457719
0.67829221 0.84113159 0.37463951
0.83928171 0.16771476 0.70498634
0.18062745 0.83930618 0.37539028
0.81812440 0.66932609 0.70826206
0.16091048 0.33102803 0.36931393
0.00545636 0.00024667 0.03544838
0.67634723 0.33255294 0.37610799
0.48474800 0.98223580 0.03757434
0.51031232 0.50501275 0.04619636
0.00162006 0.50927333 0.04007864
0.33770842 0.66412057 0.71167654
0.33560000 0.15933602 0.70522109
0.67787170 0.84830726 0.37499038
0.83022752 0.16564555 0.71301054
0.18202139 0.84898442 0.37443537
0.81694697 0.66161422 0.71178977
0.15412157 0.32350476 0.36882069
0.00975353 0.00513007 0.03814930
0.67451512 0.33461821 0.37483632
0.48922836 0.99222883 0.03699782
0.51933981 0.51268407 0.04478562
0.99645465 0.50893630 0.03669595
0.33559928 0.66962936 0.70941367
0.33283844 0.15989120 0.70760734
0.66522361 0.84447055 0.37118560
0.82734336 0.16556033 0.71461552
0.17808228 0.84744685 0.37588858
0.82506230 0.65967223 0.71377104
0.14987273 0.31909916 0.37019620
0.00818860 0.00633914 0.04524368
0.67216688 0.33639671 0.37783848
0.49198794 0.99343429 0.03563663
0.51575731 0.51111649 0.04758585
0.99858370 0.50507791 0.03357274
0.33383835 0.67088634 0.70948537
0.33776675 0.17327791 0.70706164
0.65747182 0.82927677 0.36772826
0.83546572 0.16957333 0.71074792
0.17447769 0.83897340 0.37591113
0.83508200 0.66802852 0.71232167
0.15711861 0.32524994 0.37351797
0.00080972 0.00045821 0.04747373
0.66826970 0.33686948 0.37987333
0.48958549 0.99154792 0.03576060
0.50563925 0.50574386 0.04900608
0.99956349 0.50005513 0.03511032
0.33494103 0.66658277 0.70863697
0.34085733 0.17683972 0.70463817
0.65979697 0.81812367 0.36794570
0.84450834 0.17496137 0.70944875
0.17524827 0.83609880 0.37701909
0.83447357 0.67254119 0.70733188
0.16785371 0.33317816 0.37434340
0.99318678 0.99294613 0.04402526
0.66422815 0.33699389 0.37712869
0.48892120 0.99327613 0.04090963
0.50301181 0.50388746 0.04243642
0.99877484 0.49692656 0.04284564
0.33542867 0.66629634 0.70696994
0.33587159 0.16354532 0.70375635
0.66518536 0.82294316 0.37389630
0.84302706 0.17543488 0.71173572
0.17637372 0.84128480 0.38028307
0.83020027 0.66793034 0.70411220
0.17158481 0.33245262 0.37367530
0.99332859 0.99298884 0.04121713
0.66094531 0.33633434 0.37255217
0.49217406 0.99659038 0.04487298
0.50795367 0.50678022 0.03334399
0.99575202 0.49427674 0.04662681
0.33613723 0.67280269 0.70689850
0.32927883 0.15316767 0.70697168
0.66646077 0.83043187 0.37781292
0.83551192 0.17324214 0.71210305
0.17031801 0.84139691 0.37916926
0.82973821 0.65800405 0.70303169
0.16867307 0.32995796 0.37502466
0.99643774 0.00143240 0.04335793
0.66104535 0.33537012 0.37144334
0.49817253 0.99969108 0.04512926
0.50871875 0.51016147 0.03521736
0.99413868 0.49264799 0.04469689
0.33713033 0.67342675 0.70633357
0.32641899 0.15677614 0.71173361
0.66476286 0.83107347 0.37677424
0.83403589 0.17139670 0.70852529
0.16512914 0.83475526 0.37467440
0.83354699 0.65774943 0.70345122
0.16323928 0.33028114 0.37828407
0.99618943 0.00736261 0.04321962
0.66332146 0.33285599 0.37551475
0.50380652 0.00188933 0.04317884
0.50412220 0.50862431 0.04302272
0.99888554 0.49428255 0.04307389
0.33563090 0.66556920 0.70373221
0.33030614 0.16734552 0.71374116
0.66365257 0.82665901 0.37618484
0.83985758 0.17113960 0.70441551
0.16738456 0.83095937 0.37249385
0.83971862 0.66865121 0.70463011
0.16161598 0.33088425 0.37697486
0.99619865 0.00373248 0.03905129
0.66750137 0.33363114 0.37630371
0.50550334 0.00220006 0.04281611
0.50167346 0.50251698 0.04522615
0.00438157 0.49836148 0.04295810
0.33423991 0.66145356 0.70082568
0.33348813 0.17163578 0.70938626
0.66557657 0.82652748 0.37814580
0.84439586 0.17275258 0.70328123
0.17034683 0.83307962 0.37273509
0.84053247 0.67294999 0.70590353
0.16157857 0.32851438 0.37425660
0.99928973 0.00061477 0.03647267
0.67298422 0.33600923 0.37073517
0.50484955 0.00122488 0.04479809
0.50083959 0.50015826 0.04078276
0.00171745 0.49851841 0.04587759
0.33793827 0.66825844 0.70087495
0.32958016 0.16216821 0.70580730
0.67095629 0.83548746 0.38045666
0.83857635 0.17104533 0.70587899
0.16776431 0.83875908 0.37421912
0.83676336 0.66655406 0.71023334
0.15911396 0.32533073 0.37553421
0.00566845 0.00474628 0.03699442
0.67300392 0.33622845 0.36779186
0.50452065 0.00219967 0.04420464
0.49795663 0.50003110 0.03568421
0.99268218 0.49598708 0.04752929
0.34020034 0.67761232 0.70517586
0.32599249 0.15678410 0.70786886
0.67049532 0.84040549 0.37930022
0.82872334 0.16520469 0.70746144
0.16009565 0.83649870 0.37329359
0.83351449 0.66270548 0.71297114
0.16132319 0.33192516 0.37869373
0.00971024 0.00802813 0.04212400
0.66781185 0.33598131 0.37152839
0.50622666 0.00529246 0.04395899
0.49592017 0.50038822 0.03822661
0.99246878 0.49722221 0.04784767
0.33579073 0.67380031 0.70839795
0.32914229 0.16605091 0.71118166
0.66442055 0.83435644 0.37622400
0.82725185 0.15973368 0.70461566
0.15537335 0.82740899 0.36819876
0.83490912 0.66785882 0.71288934
0.17066232 0.34368090 0.38049869
0.00695140 0.00517609 0.04440764
0.66470339 0.33366595 0.37552231
0.50852248 0.00938109 0.04260518
0.49570898 0.49966577 0.04300537
0.00251506 0.50126346 0.04833602
0.33173424 0.66295012 0.70668548
0.33641451 0.17497466 0.71187388
0.66076732 0.82467351 0.37571532
0.82888718 0.15939850 0.70117395
0.15937854 0.82667969 0.36391929
0.83923493 0.67399851 0.71304895
0.18028157 0.34805684 0.37865683
0.00394583 0.99958139 0.03902410
0.66446831 0.33065905 0.37548803
0.50368042 0.00820818 0.04045875
0.49263317 0.49603504 0.04042344
0.00975769 0.50324332 0.04825656
0.33185515 0.66255029 0.70557735
0.34126724 0.17255458 0.70975959
0.66341396 0.82273332 0.37611583
0.82395857 0.16394843 0.70053422
0.16292243 0.83332673 0.36658627
0.83714664 0.67061310 0.71224968
0.18491215 0.34484810 0.37375896
0.00262894 0.99613436 0.03757900
0.66654446 0.33117829 0.37241901
0.49915375 0.00240562 0.04479686
0.49090450 0.49276952 0.03554299
0.00634961 0.50078465 0.04967802
0.33240248 0.67259562 0.70936470
0.33712127 0.16242196 0.71101519
0.67132756 0.83321145 0.37614357
0.81760619 0.16610045 0.70147976
0.16216436 0.83650863 0.37116392
0.83472990 0.66481305 0.71449471
0.18192010 0.34078510 0.37128885
0.00035746 0.99510432 0.04012251
0.66725208 0.33174484 0.37300365
0.50354916 0.00378146 0.04418286
0.49085850 0.49124167 0.03311773
0.00012706 0.49773623 0.04502033
0.32937326 0.67351318 0.71655376
0.33067051 0.15904186 0.71502286
0.67496570 0.84415846 0.37439713
0.81686697 0.16246098 0.70063881
0.16339976 0.82970552 0.36705991
0.83800356 0.66574815 0.71526611
0.17827035 0.34133757 0.37321063
0.99720445 0.99526769 0.04231241
0.66536966 0.32999672 0.37873344
0.50868126 0.00358292 0.03952923
0.49211990 0.49459775 0.03749621
0.00216547 0.50370968 0.03745588
0.32244189 0.65619263 0.71462520
0.33256716 0.17064770 0.71549305
0.67618067 0.84800552 0.37172146
0.82390019 0.15968147 0.70277353
0.16607962 0.82458979 0.36283715
0.83951427 0.67248842 0.71028272
0.17499401 0.33829177 0.37726199
0.99360973 0.99856993 0.04247772
0.66662924 0.32951745 0.38285102
0.50944115 0.99629615 0.04010009
0.49535443 0.50213893 0.04041878
0.00860907 0.51209632 0.03542877
0.31781855 0.63949573 0.70561016
0.34405562 0.18381601 0.70910859
0.67815913 0.84737476 0.37167233
0.82889116 0.16471882 0.71053803
0.16969046 0.83278513 0.36895928
0.84181394 0.67792430 0.70597632
0.17341099 0.32989022 0.37772962
0.99328724 0.99933557 0.04094636
0.67148681 0.33116645 0.37999466
0.50576016 0.99091154 0.04476512
0.49770091 0.50424576 0.03494930
0.00952490 0.51328719 0.03414280
0.32394277 0.64526201 0.70166372
0.34790812 0.18396224 0.69814680
0.67664532 0.84409871 0.37307727
0.83174630 0.17295270 0.71401752
0.16418166 0.83939699 0.37905271
0.84529182 0.67498985 0.70340725
0.17482957 0.32601883 0.37492812
0.99398332 0.99486629 0.04616450
0.67372763 0.33407986 0.37416027
0.50129453 0.98976740 0.05186481
0.49694378 0.50245692 0.03223750
0.99707889 0.50453017 0.03437882
0.33275493 0.66350911 0.70556781
0.33653872 0.17290768 0.69823180
0.67009473 0.83973212 0.37193377
0.83373421 0.17370695 0.71409670
0.15363803 0.83340152 0.38610605
0.84530565 0.67454095 0.70875525
0.17220114 0.32589634 0.37596857
0.99315320 0.99568551 0.04981776
0.66982301 0.33488902 0.37450889
0.50161887 0.99393379 0.05208399
0.50084234 0.50475535 0.03573369
0.98498283 0.49757539 0.03273304
0.33153401 0.66905196 0.71318712
0.32612180 0.16776507 0.70644243
0.65890538 0.83252265 0.36871439
0.83715354 0.16564261 0.71158083
0.15490047 0.82038869 0.38672280
0.84152944 0.67615187 0.71232352
0.17290869 0.33408426 0.38082165
0.99107789 0.99888020 0.04784283
0.66035972 0.33010445 0.38300396
0.50232413 0.00162741 0.04656554
0.51006068 0.51176176 0.04573267
0.99325814 0.50130133 0.03297894
0.32421960 0.65810943 0.71208891
0.33047303 0.17200533 0.70998933
0.65277451 0.82397168 0.36381683
0.83660844 0.15926449 0.70959942
0.16342654 0.81500556 0.38166182
0.83958181 0.67750677 0.70792965
0.17772137 0.33932817 0.37960622
0.98734100 0.99725156 0.04434026
0.65703413 0.32492468 0.38398645
0.50371451 0.01209377 0.04103062
0.51262112 0.51068177 0.05406727
0.01077506 0.50926506 0.03682345
0.32688862 0.65546876 0.70410287
0.33983750 0.17080813 0.70604551
0.65484686 0.81774223 0.36370415
0.82686213 0.16284826 0.71169185
0.17738134 0.82645234 0.38045528
0.84195490 0.67756014 0.70601497
0.17776505 0.33562309 0.37083369
0.98741084 0.99269565 0.03951873
0.66263401 0.32514249 0.37727211
0.50532939 0.01957257 0.03560063
0.49964137 0.49186844 0.04907708
0.00970905 0.50712143 0.03817618
0.33958572 0.67069867 0.70150668
0.34041802 0.15668419 0.69874846
0.66119701 0.81972991 0.37232671
0.82162487 0.16669069 0.71154619
0.18405296 0.83558669 0.38553553
0.84371057 0.67460476 0.70822876
0.17231069 0.33166774 0.36453444
0.99466113 0.98897353 0.03664589
0.66761657 0.33005746 0.37240663
0.50047789 0.01640537 0.03652536
0.48269774 0.47220828 0.04187861
0.99488654 0.50181504 0.04261305
0.34558644 0.69307948 0.70685458
0.33433880 0.14462033 0.69953870
0.67059838 0.83771351 0.38039801
0.82973291 0.16474632 0.71468035
0.18563396 0.83379443 0.38687082
0.83892894 0.67318650 0.71032804
0.15809088 0.33535190 0.36460297
0.00212708 0.98948044 0.03660037
0.66217214 0.33060769 0.37375022
0.50043175 0.00859497 0.03571653
0.47103895 0.46854146 0.04062953
0.98774292 0.49995667 0.04873257
0.34753083 0.69814428 0.70838551
0.33660324 0.15548136 0.70386480
0.67319371 0.84666348 0.38082517
0.84022246 0.16044289 0.71551740
0.18668028 0.82934002 0.37891640
0.83400009 0.67440540 0.70465354
0.14529886 0.34336425 0.36816903
0.00951471 0.99529812 0.03578075
0.65307103 0.32829521 0.37988752
0.49930675 0.00409461 0.02795482
0.48009088 0.48187944 0.04592118
0.99407078 0.50511514 0.04923197
0.34662978 0.68496175 0.70565354
0.34386615 0.17766269 0.70622617
0.66556398 0.83635789 0.37472931
0.84247703 0.15583461 0.70982879
0.18174924 0.82935829 0.37127127
0.82420157 0.66542311 0.69887412
0.14034707 0.33983525 0.36552356
0.01310181 0.00563390 0.03558116
0.65437042 0.33001427 0.38049452
0.49913846 0.01139555 0.02928687
0.50484007 0.50070218 0.05167719
0.00249960 0.51396009 0.04487536
0.34890390 0.67190814 0.70462977
0.33852350 0.18136569 0.70476930
0.66147761 0.82482063 0.37302399
0.84298875 0.15985464 0.70878428
0.17300920 0.83460429 0.37373847
0.80751236 0.65067192 0.70295257
0.14123271 0.32042894 0.35794936
0.01003044 0.01548153 0.03469841
0.66495009 0.33199536 0.37407634
0.49596768 0.01510452 0.03253292
0.52272632 0.51012261 0.05128673
0.00259563 0.51715185 0.03845233
0.35029083 0.67353633 0.71000831
0.32801959 0.17018630 0.70144187
0.66866725 0.82510689 0.37741062
0.84585511 0.17353664 0.70990344
0.16808933 0.83798036 0.38066494
0.80518510 0.64712515 0.70946573
0.14417556 0.31767145 0.36560917
0.00773740 0.01549208 0.03419193
0.67528175 0.33384271 0.37101257
0.48275278 0.00045173 0.03587292
0.51006663 0.50173198 0.04724623
0.99607311 0.51212620 0.03854598
0.34401053 0.67721093 0.71105959
0.32614498 0.16336581 0.70671511
0.67794527 0.83307669 0.37822663
0.84943647 0.18219564 0.71203904
0.17017773 0.83222032 0.37810546
0.81331630 0.65551585 0.71385266
0.15115264 0.33377895 0.37672442
0.00401765 0.00465726 0.03682699
0.67995593 0.33867970 0.37349350
0.47667555 0.98095320 0.04354531
0.49779824 0.49619003 0.04360398
0.99397781 0.49658322 0.04214813
0.33450934 0.66694314 0.71383747
0.32641474 0.16284720 0.71280852
0.67845950 0.83809665 0.37387852
0.84898552 0.17578027 0.71319560
0.17313034 0.83518792 0.37282055
0.81919251 0.66236006 0.71242866
0.16146352 0.34412009 0.38083102
0.00055230 0.99588684 0.04149731
0.67400298 0.33953116 0.37633851
0.48165469 0.97713518 0.04221880
0.50537529 0.50466865 0.03970355
0.00186082 0.48511706 0.04064039
0.33384445 0.65819557 0.71483297
0.32935601 0.16468251 0.71146946
0.66926806 0.83229585 0.36954464
0.84532334 0.16903134 0.71118169
0.17198953 0.84368100 0.37027380
0.82266686 0.66028540 0.70350237
0.16405210 0.33601524 0.37712260
0.00100931 0.00006051 0.04534844
0.66742980 0.33782712 0.37215060
0.49026466 0.98448481 0.03766028
0.51841109 0.51415170 0.04063853
0.00723690 0.48807645 0.04120885
0.33596479 0.65911435 0.70997727
0.33371558 0.16425138 0.70746068
0.66692800 0.83027713 0.37363207
0.83763311 0.17181300 0.71080738
0.17067677 0.84891855 0.37349787
0.82703169 0.65829112 0.69952503
0.15434684 0.31901882 0.37295204
0.00525845 0.00883472 0.04331895
0.66572743 0.33403336 0.36353847
0.49487690 0.98906434 0.03863620
0.51399732 0.51069518 0.03775343
0.00895010 0.49555436 0.04027125
0.33765663 0.66746794 0.70713332
0.33507454 0.15946135 0.70516268
0.66935512 0.83619042 0.37987939
0.83422038 0.18070355 0.71029418
0.17208320 0.84480149 0.37783042
0.82967241 0.66269382 0.70481947
0.15692291 0.32032170 0.37341021
0.00677510 0.00668442 0.04356084
0.66644500 0.33113923 0.36415768
0.49308124 0.98789684 0.04453848
0.50119108 0.50310262 0.03621147
0.01044960 0.49982463 0.04100246
0.33281915 0.67515162 0.70667396
0.33467820 0.15946699 0.70736473
0.66947733 0.84238681 0.37707389
0.83809668 0.18303245 0.71170187
0.17393199 0.83770276 0.37760895
0.83173722 0.66695543 0.71266061
0.17107942 0.33735588 0.37568052
0.00137569 0.00111671 0.04659149
0.67130126 0.33566542 0.37339365
0.49389726 0.98915434 0.04686783
0.50125288 0.50563947 0.04084178
0.00814723 0.49633844 0.04253189
0.32680213 0.67500495 0.70523048
0.33560644 0.16642730 0.71040671
0.66720907 0.84223927 0.37160194
0.83841871 0.17285723 0.71323932
0.17548886 0.84081467 0.37443430
0.83052400 0.66784786 0.71523440
0.17631266 0.34149235 0.37662019
0.99850551 0.00014711 0.04445010
0.66829231 0.33947522 0.37812765
0.49740968 0.99085412 0.04137273
0.51213281 0.51250373 0.04455348
0.99980696 0.49043187 0.03931982
0.32999696 0.67141172 0.70334972
0.33676116 0.17241683 0.71004368
0.66190960 0.83418460 0.36864339
0.83223416 0.16566267 0.70854841
0.17115659 0.84318865 0.37378849
0.82985798 0.66372229 0.70988925
0.17259935 0.33182031 0.37574731
0.00045958 0.00150926 0.04062646
0.66274520 0.33885509 0.37490273
0.49636985 0.99294423 0.03889024
0.51708339 0.51332138 0.04652722
0.99674992 0.49403764 0.03947987
0.33444315 0.66866302 0.70083697
0.33394074 0.17066585 0.70898214
0.65809770 0.82714743 0.37239964
0.82980546 0.16787228 0.70551110
0.16372783 0.83837523 0.37705416
0.83270190 0.66203594 0.70806904
0.16840886 0.32359540 0.37525102
0.99822049 0.00204563 0.03736241
0.66494518 0.33577113 0.36985092
0.49534129 0.99833455 0.04114352
0.50916748 0.50565804 0.04332408
0.99709664 0.50073656 0.04109537
0.33505317 0.66708861 0.70353481
0.32964282 0.16384272 0.70782659
0.65803858 0.82453250 0.37905712
0.83256064 0.17069341 0.70673812
0.16725221 0.83659869 0.37791323
0.83753045 0.66656198 0.71204580
0.17078143 0.32912347 0.37713059
0.99256839 0.99852486 0.03628232
0.67016813 0.33405361 0.36949703
0.49538989 0.99936387 0.04549361
0.49627249 0.49565364 0.03908501
0.99550281 0.50194928 0.04172118
0.33186259 0.66451533 0.70793977
0.32899342 0.16150880 0.71012369
0.66394378 0.82745954 0.37882320
0.83475651 0.16959550 0.70849998
0.17073271 0.83144373 0.37355936
0.83728082 0.66880340 0.71303025
0.17558709 0.34097370 0.37828793
0.99090172 0.99533665 0.03794502
0.67334544 0.33854604 0.37343518
0.50143481 0.00062203 0.04737931
0.49241481 0.49382906 0.03813025
0.99557418 0.49874951 0.04451829
0.32964816 0.66328032 0.70772242
0.33226970 0.16704662 0.71261383
0.66915131 0.83164832 0.37728919
0.82981080 0.15975380 0.70859043
0.16681073 0.83001611 0.36868313
0.83399447 0.66779300 0.71045372
0.17499221 0.34043077 0.37721058
0.99901685 0.00306392 0.03692868
0.67091625 0.33999130 0.37356773
0.51127398 0.00937061 0.04207607
0.49619943 0.49966423 0.03828200
0.99803267 0.49562308 0.04548265
0.33776627 0.66534635 0.70517377
0.33540997 0.17045205 0.71092171
0.66739047 0.83074440 0.37905550
0.82173429 0.15274320 0.70322639
0.16272629 0.83205308 0.36883731
0.83721923 0.66817353 0.70384740
0.16797555 0.32991458 0.37504399
0.00999190 0.01002847 0.03761666
0.66661899 0.33547308 0.37064368
0.51248925 0.01532325 0.03914927
0.49607442 0.50134927 0.04378177
0.00090599 0.50032492 0.04684591
0.34356823 0.66578896 0.70139909
0.33479015 0.16805227 0.71078981
0.66606374 0.82922833 0.38071490
0.82235660 0.15953226 0.70145611
0.16021085 0.83065559 0.37368512
0.84348960 0.67094154 0.70175708
0.15967327 0.32490737 0.37458765
0.01225948 0.00772180 0.03984916
0.66668572 0.33011171 0.37069907
0.51164640 0.01572839 0.04260108
0.48989478 0.49538209 0.04485124
0.00202394 0.50604668 0.04601045
0.33902287 0.66576592 0.70395739
0.33433245 0.16795830 0.70987470
0.66941468 0.83198126 0.38088192
0.83073430 0.16917664 0.70633880
0.15898860 0.82660990 0.37486660
0.84296407 0.67465597 0.70630233
0.16419330 0.33229312 0.37576475
0.00764860 0.00276664 0.04270979
0.66872964 0.32865582 0.37457686
0.51073551 0.01180310 0.04609375
0.48410493 0.48911751 0.03967218
0.00284734 0.50690846 0.04297615
0.33469767 0.67062199 0.71048050
0.33657513 0.17184811 0.70633157
0.67439697 0.83912618 0.37592387
0.83433680 0.16869170 0.71018747
0.15678601 0.82266365 0.36956321
0.83884394 0.67442718 0.70934240
0.17369895 0.34272868 0.37480781
0.00362634 0.99972359 0.04527568
0.67316562 0.33458465 0.37882729
0.50657218 0.00426763 0.04466911
0.48709502 0.49139661 0.03836548
0.00141883 0.50526529 0.04272367
0.33788655 0.67291172 0.71192957
0.33604577 0.17570862 0.70424606
0.67510033 0.84435950 0.37082671
0.82893706 0.15941039 0.71056455
0.15261212 0.82661237 0.36838359
0.83618381 0.67151473 0.70782651
0.17391096 0.33797411 0.37269150
0.00351224 0.99928683 0.04405636
0.66923339 0.33490852 0.37821796
0.50267749 0.99899720 0.04000814
0.49740937 0.49995092 0.03878862
0.99761317 0.50259545 0.04123972
0.34125667 0.66792933 0.71257086
0.32996702 0.17179815 0.70241903
0.66489174 0.83912096 0.36942404
0.82491783 0.15914281 0.70491376
0.15345174 0.83120309 0.37392805
0.83903337 0.66827020 0.70399956
0.17009130 0.32882926 0.37335768
0.00420944 0.99883521 0.04534246
0.65852346 0.32541907 0.37566331
0.49884407 0.99926911 0.04090701
0.50422564 0.50618063 0.04035229
0.99823978 0.50527993 0.03773775
0.33598182 0.66068919 0.71236829
0.32525505 0.16312744 0.70371973
0.65650726 0.83203640 0.36862478
0.83313215 0.17014193 0.70496876
0.16184921 0.82974921 0.37810420
0.84452402 0.66839402 0.70668757
0.16832410 0.33023834 0.37542856
0.99742208 0.99455471 0.04773301
0.65975523 0.32041920 0.37724231
0.50003806 0.00254034 0.04369497
0.50280703 0.50422297 0.03827354
0.00319547 0.51130172 0.03302704
0.32465872 0.65748627 0.71370470
0.32919648 0.16233030 0.70649962
0.66097966 0.83512530 0.36880757
0.83981335 0.17348011 0.71394126
0.17345922 0.83362580 0.37542134
0.83932364 0.67084713 0.71438158
0.17196337 0.33788191 0.37655520
0.99036897 0.99117971 0.04753129
0.66354084 0.32196432 0.38249869
0.50835026 0.00175619 0.04295202
0.49742532 0.49683005 0.03299048
0.00637609 0.51040459 0.03077758
0.32337631 0.66193476 0.71511740
0.33463058 0.16658697 0.70553589
0.67194107 0.84532615 0.36831650
0.83764550 0.16988760 0.71800305
0.17318512 0.83883250 0.36886542
0.82920105 0.66602316 0.71539837
0.17799143 0.34461125 0.37602976
0.99182492 0.99012828 0.04704886
0.66128331 0.32672835 0.38520588
0.51103558 0.99824586 0.03937937
0.50094717 0.49818762 0.03962158
0.00318652 0.50297916 0.03709390
0.33381741 0.67256725 0.71055983
0.33558625 0.16750943 0.70742862
0.67655859 0.85051789 0.36585572
0.83276180 0.16471285 0.71538712
0.16325448 0.83899411 0.36804324
0.83017025 0.65828646 0.71020639
0.17731999 0.34305606 0.37486579
0.99835367 0.99347564 0.04269842
0.65699240 0.32702131 0.37891323
0.50638250 0.00186468 0.03004531
0.51056529 0.50724503 0.04952589
0.99777827 0.49559615 0.03980390
0.33806084 0.67461118 0.70797792
0.33743914 0.16471579 0.71007056
0.66655920 0.84162999 0.36692090
0.83335077 0.16291845 0.70995221
0.16032911 0.83389840 0.37399714
0.83661885 0.66126522 0.70475289
0.17315975 0.33977566 0.37547162
0.00336416 0.99999703 0.03904994
0.65485332 0.32547362 0.37141787
0.49869084 0.00245365 0.03004195
0.50864545 0.50937529 0.04856416
0.99809460 0.49567326 0.03483219
0.33320529 0.66927533 0.70912292
0.33862720 0.16226058 0.71349850
0.65438964 0.82460302 0.37109111
0.83780888 0.16923838 0.71098667
0.16391413 0.82425585 0.37994095
0.83780609 0.67294100 0.70395115
0.17097111 0.34541305 0.37479545
0.00016407 0.00040436 0.04079516
0.66449083 0.33252919 0.37190848
0.49255711 0.00052000 0.03987091
0.50310182 0.50133964 0.04053207
0.00620741 0.50446034 0.03259875
0.32813627 0.66816096 0.71517604
0.33580470 0.16401638 0.71344892
0.65668074 0.81974226 0.37767378
0.84112933 0.17087310 0.71898097
0.16724773 0.82054260 0.38401452
0.82885664 0.67811674 0.70389155
0.17320311 0.35047638 0.36874930
0.99145210 0.99605311 0.04341115
0.68221360 0.34697262 0.37719577
0.49244944 0.99785190 0.04404452
0.50022027 0.49172363 0.03517729
0.00591801 0.50545185 0.03828692
0.33516170 0.67224632 0.72119324
0.33300864 0.16740669 0.70620828
0.66541043 0.82854429 0.38264497
0.83886768 0.16156646 0.71533770
0.16854031 0.82739841 0.38491261
0.81980061 0.66800461 0.70124786
0.17650986 0.34652550 0.36243130
0.99206234 0.99456062 0.04366658
0.69144353 0.35857989 0.38049420
0.49166712 0.99862107 0.03958922
0.50345034 0.48710089 0.04331753
0.98909986 0.49577670 0.04779828
0.34170521 0.67311834 0.71030373
0.32709073 0.16376030 0.70644956
0.67013300 0.83430832 0.38172907
0.83187965 0.15440163 0.70075769
0.17109086 0.83808909 0.38183060
0.82617596 0.65816292 0.70556897
0.16989703 0.34026936 0.36393349
0.00062603 0.99960002 0.03494044
0.68972284 0.35866269 0.37908109
0.48839032 0.00167844 0.03173209
0.50776414 0.49373038 0.05202489
0.97956294 0.49124424 0.05029216
0.34097397 0.67244405 0.69746911
0.32377328 0.16278128 0.71120822
0.66236998 0.82854437 0.37997248
0.83365214 0.15934523 0.69295101
0.18331582 0.84727799 0.37981783
0.82990266 0.65571715 0.70413381
0.15782883 0.32834363 0.37224925
0.00657547 0.01070828 0.03034629
0.67894170 0.34382957 0.37627235
0.48652941 0.00514808 0.03173159
0.51071557 0.50696805 0.05031055
0.99199395 0.49547417 0.04863908
0.34030146 0.66909309 0.69741260
0.32831998 0.16643016 0.71051993
0.65649653 0.82180163 0.38182056
0.84577447 0.17496002 0.69958205
0.19048674 0.84361879 0.37708532
0.82612221 0.66339838 0.69969537
0.14708173 0.31204593 0.37712907
0.99890339 0.00680306 0.03961578
0.66814198 0.33013000 0.37311119
0.49343544 0.00709305 0.03975654
0.51126862 0.50886409 0.04580754
0.00317194 0.49932035 0.04443646
0.33654350 0.66309097 0.70445297
0.33313763 0.16822500 0.70603536
0.66859745 0.83084941 0.38659454
0.85301861 0.18591363 0.71027191
0.18432428 0.83811546 0.37020461
0.81840463 0.67237202 0.70098205
0.14127136 0.30154730 0.37476573
0.98873421 0.00044458 0.04183946
0.67528076 0.33399770 0.37342624
0.50527979 0.00390941 0.04611963
0.51003113 0.50010639 0.04392208
0.00262607 0.49805597 0.04431359
0.33088758 0.66073386 0.70775763
0.33334428 0.17178761 0.70453924
0.68938507 0.84949736 0.39314960
0.84874795 0.18420234 0.71021202
0.17965621 0.84852003 0.37295064
0.81432421 0.66910011 0.70752142
0.14720195 0.30726888 0.37147808
0.99407831 0.00361766 0.03383414
0.68491359 0.34349013 0.37195026
0.50057962 0.99471681 0.04406323
0.50889162 0.49815031 0.04370652
0.99569066 0.49414667 0.05012540
0.32942750 0.66770563 0.69974199
0.33657172 0.17150507 0.70902482
0.69060457 0.85536503 0.38962942
0.83896639 0.17726883 0.70198769
0.17793568 0.85885804 0.38168263
0.82122355 0.65629220 0.71016515
0.15795265 0.32729178 0.37183938
0.00587362 0.00764242 0.03194150
0.67658158 0.34193072 0.36809461
0.48175950 0.98314791 0.03821681
0.51111709 0.51674690 0.03967059
0.99243298 0.49249213 0.05320479
0.32832551 0.67059653 0.69489184
0.33332587 0.16500391 0.71185616
0.67425299 0.83976124 0.38384932
0.84268333 0.17349188 0.70200800
0.17654626 0.85756886 0.38632898
0.83362934 0.65790249 0.70159030
0.16221801 0.33640400 0.37672097
0.01055916 0.01065007 0.04263773
0.66058142 0.33097171 0.37225613
0.47179084 0.97823503 0.03645542
0.50700633 0.52393742 0.03652673
0.00260694 0.49491799 0.04591451
0.33002243 0.65926410 0.70333428
0.32468339 0.15796256 0.71056315
0.66213041 0.82332123 0.37326669
0.84594852 0.17440313 0.70985104
0.17228574 0.83987768 0.38091233
0.83276537 0.66381540 0.69616416
0.15660872 0.32859090 0.37727054
0.00497863 0.00771527 0.05380367
0.65807574 0.32521268 0.37823407
0.48337889 0.98545944 0.04094306
0.50498231 0.51665609 0.03703314
0.01418993 0.50263523 0.03986875
0.33958462 0.66179678 0.70764281
0.32420189 0.15725555 0.71061803
0.66273755 0.82181699 0.36698835
0.84175664 0.17960481 0.71379026
0.16397108 0.82185119 0.37356875
0.82177713 0.66578358 0.70611978
0.15371879 0.32029442 0.37184175
0.00198234 0.00283093 0.05163481
0.66533663 0.33065654 0.37734813
0.49686532 0.99276244 0.03960993
0.51197105 0.51547123 0.03870757
0.01450102 0.50997251 0.04311023
0.33859700 0.67319291 0.70451267
0.33530900 0.16272519 0.71118029
0.66466451 0.82936694 0.36939736
0.83361309 0.18042769 0.71076603
0.16355013 0.82353986 0.37413662
0.81831465 0.66076885 0.71699554
0.16225620 0.32273031 0.37036562
0.00637163 0.00279455 0.03835154
0.66549289 0.33464229 0.37502142
0.49785550 0.98792165 0.03721520
0.51615625 0.51903930 0.04131283
0.00759399 0.50295416 0.04742432
0.32448336 0.67427944 0.70167224
0.34326116 0.16603529 0.71453874
0.66249615 0.83163313 0.37024372
0.83238263 0.17567864 0.70808992
0.16987825 0.83210613 0.37513919
0.82900940 0.65847814 0.71703644
0.17090801 0.33391649 0.37569086
0.00760647 0.00038091 0.03129248
0.66261247 0.33587127 0.37278558
0.49540927 0.98636318 0.03839956
0.51044007 0.51764093 0.04395838
0.00108682 0.49325234 0.04251285
0.31502853 0.66798484 0.70472365
0.33880536 0.16636601 0.71509049
0.66331537 0.82783468 0.36833993
0.84050479 0.16916319 0.71047020
0.17276937 0.83780781 0.37292292
0.84286212 0.66565885 0.70938726
0.16778264 0.33783727 0.38250148
0.00251907 0.99919840 0.03738406
0.66079899 0.33470156 0.37115891
0.50173609 0.99945294 0.04556548
0.50096862 0.50911313 0.04252780
0.00091993 0.49286055 0.03444245
0.32265457 0.66466306 0.70952604
0.33211545 0.16430076 0.71035810
0.66734211 0.82816920 0.36901865
0.84602234 0.16878308 0.71514352
0.16662224 0.83622699 0.37015507
0.84766181 0.67315719 0.70553899
0.15792791 0.33244849 0.38398889
0.99703520 0.99788232 0.04491474
0.65971551 0.33058335 0.36777589
0.51179433 0.00980970 0.05131821
0.50004945 0.50196638 0.04074341
0.00077299 0.50038167 0.03698846
0.33945396 0.67121055 0.70978788
0.33350435 0.16614815 0.70690939
0.67059399 0.83258523 0.37339879
0.84078279 0.17694597 0.71480324
0.15758991 0.83248412 0.37076150
0.84102215 0.67146953 0.70688650
0.15883312 0.33024531 0.37913960
0.99486363 0.99537219 0.04184630
0.66244315 0.32925834 0.36436302
0.51237241 0.00593004 0.04983159
0.50365629 0.49812870 0.04124371
0.99975703 0.50596141 0.04484486
0.34530915 0.68005680 0.70644793
0.33585890 0.17066103 0.70420144
0.67078322 0.83710868 0.37946806
0.83067161 0.17663457 0.70757701
0.15715711 0.83149506 0.37672971
0.83054513 0.66513077 0.70735499
0.17334702 0.33780808 0.37436515
0.00037263 0.99894851 0.03522132
0.66392804 0.32911960 0.36783623
0.50549135 0.99958885 0.04471171
0.49876472 0.49546073 0.04360223
0.00061080 0.50147063 0.04593050
0.33771215 0.67833485 0.70387303
0.33462549 0.16924335 0.70440654
0.66677222 0.83605141 0.37976131
0.82501280 0.16284103 0.70007244
0.16182667 0.82929577 0.37800662
0.83122781 0.66528990 0.70807460
0.18257150 0.34793757 0.37506692
0.00769082 0.00554006 0.03574823
0.66493672 0.33064846 0.37333338
0.49868385 0.00032169 0.04161873
0.49204174 0.49391263 0.04640641
0.00002487 0.49620723 0.04082855
0.32899074 0.66692260 0.70670648
0.33192943 0.16525600 0.70700669
0.66340513 0.83034481 0.37563631
0.82766375 0.15246780 0.69971423
0.16249173 0.82725911 0.37291723
0.83796582 0.67224948 0.70641867
0.17267769 0.34524243 0.37948111
0.00728447 0.00675118 0.04177079
0.66891490 0.33315255 0.37638691
0.49781902 0.00655758 0.04168780
0.48967033 0.49132649 0.04669775
0.99798734 0.49966389 0.03768896
0.33524457 0.65968566 0.71029047
0.33146917 0.16428644 0.70562660
0.66341473 0.82949612 0.37466732
0.82906995 0.15510253 0.70533448
0.16036857 0.82580691 0.37070351
0.83918650 0.67564162 0.70529724
0.15946273 0.33354737 0.37776651
0.00099041 0.00247688 0.04532417
0.67319365 0.33349730 0.37782003
0.50239528 0.01078164 0.04314357
0.48999740 0.48944315 0.04404745
0.00070761 0.50823893 0.04152380
0.34821816 0.66639445 0.70842961
0.33461337 0.16537049 0.70284465
0.66571126 0.83318731 0.37713566
0.82765563 0.16450785 0.70993935
0.15733071 0.82368272 0.37415904
0.83522333 0.67075276 0.70888985
0.16246261 0.33185879 0.37362789
0.99971459 0.99865457 0.04284765
0.67365346 0.33518347 0.37780740
0.50610716 0.00805615 0.04172292
0.49253287 0.49156180 0.04027873
0.00410434 0.51075498 0.04760028
0.34752360 0.67492509 0.70704515
0.33685611 0.16926110 0.70251445
0.66848701 0.83836400 0.37858100
0.82776043 0.16497961 0.70625754
0.16179991 0.82844064 0.37646330
0.83466586 0.66982783 0.71190320
0.17560215 0.34047558 0.37402116
0.00585162 0.00068334 0.03869244
0.66967871 0.33653515 0.37900598
0.50361966 0.00172019 0.04066016
0.49313159 0.49262922 0.03746743
0.00172928 0.50120360 0.04613719
0.33239439 0.66988555 0.70744228
0.33630370 0.17203153 0.70614269
0.67316881 0.84299849 0.37398820
0.82865248 0.15702526 0.70157766
0.17099512 0.83798647 0.37388957
0.83831229 0.67518843 0.71285470
0.18024858 0.34407737 0.37704360
0.00729715 0.00111257 0.04141578
0.66813191 0.33644615 0.38018257
0.49939182 0.99999125 0.04225166
0.49329050 0.49200116 0.03694553
0.99919724 0.49427480 0.03730745
0.32351468 0.66029372 0.71017180
0.33644964 0.17080870 0.70820427
0.67762917 0.84376572 0.36846637
0.82929869 0.15481984 0.70488512
0.17201580 0.84228215 0.37189758
0.83988704 0.67456526 0.71211336
0.17228486 0.33543348 0.37767887
0.99798959 0.99659342 0.04784573
0.67039748 0.33709332 0.37896626
0.50087518 0.00300281 0.04349163
0.49639096 0.49492010 0.03825624
0.00104824 0.50053723 0.03273193
0.32911993 0.65726582 0.71232406
0.33867523 0.16976243 0.70751700
0.67497515 0.84285294 0.36948351
0.82843347 0.16200090 0.71077824
0.16708559 0.84012028 0.37354656
0.83919410 0.66867802 0.70927527
0.16648664 0.32622823 0.37502778
0.98889673 0.99604080 0.04878326
0.66705976 0.33304476 0.37756997
0.50545054 0.00244049 0.04230445
0.49995978 0.49971957 0.04013154
0.00203233 0.50834392 0.03765863
0.33704248 0.66145769 0.71012043
0.33818667 0.17262143 0.70841488
0.66700444 0.84027821 0.37313914
0.82699548 0.17191508 0.71153599
0.16379611 0.83427553 0.37546602
0.83754884 0.66452469 0.70918029
0.17200220 0.33200658 0.37194544
0.98834331 0.99697341 0.04353973
0.66077409 0.32782892 0.37838484
0.50320287 0.99695839 0.03881097
0.50424572 0.50463675 0.04032909
0.00100579 0.50826670 0.04167664
0.33227083 0.66443157 0.70707353
0.33143887 0.17612645 0.70866313
0.66249653 0.83892259 0.37298883
0.82939925 0.17202036 0.70493026
0.16812432 0.83182984 0.37715686
0.83439516 0.66490173 0.70973369
0.17841325 0.34393688 0.37151895
0.99695311 0.99901651 0.04257821
0.66058677 0.32630703 0.37951381
0.49697639 0.99469825 0.03720501
0.50508171 0.50484262 0.04034351
0.00073521 0.50066725 0.03731647
0.32070713 0.65773707 0.71003036
0.32766451 0.17428905 0.70707959
0.66516664 0.83934279 0.36946482
0.82937150 0.15816035 0.70511392
0.17345830 0.83404529 0.37665381
0.83519742 0.66615040 0.70577480
0.17131059 0.34282989 0.37190975
0.00551350 0.00380233 0.04738705
0.66720035 0.32910239 0.37598458
0.49767173 0.99735406 0.03971229
0.50111599 0.50054003 0.04208679
0.99867674 0.49227885 0.03132060
0.32083251 0.65155840 0.71784300
0.32806558 0.16784456 0.70655127
0.66825835 0.83525243 0.36989095
0.82942712 0.15216532 0.71619225
0.17143470 0.83434668 0.37568943
0.83888267 0.66554318 0.69869858
0.15602872 0.32920851 0.37402925
0.00272023 0.00253741 0.05034018
0.67631226 0.33927731 0.37028836
0.50506590 0.00157377 0.04027477
0.50089893 0.50057079 0.04381092
0.99689279 0.49335520 0.03541569
0.33127342 0.65642039 0.71768237
0.32764085 0.16155068 0.70535301
0.66296782 0.82880978 0.37733556
0.84270229 0.16765151 0.72244859
0.16815110 0.83587562 0.37752967
0.83664926 0.66560264 0.69735291
0.15355408 0.32111480 0.37286654
0.99705965 0.99940782 0.04323357
0.67330085 0.34146195 0.36637619
0.51131131 0.00800965 0.03888424
0.50139024 0.50105142 0.04246475
0.00028791 0.49888583 0.04819723
0.33906050 0.67041680 0.70920473
0.32748595 0.15802264 0.70454725
0.65518759 0.82799141 0.38527838
0.85517154 0.18060171 0.71586860
0.17029706 0.83466335 0.37722930
0.83092633 0.66602314 0.70294118
0.16594383 0.33164473 0.37169652
0.00345598 0.99948216 0.03156025
0.66465217 0.33575253 0.37227680
0.50671672 0.01045909 0.03789248
0.50210512 0.49866235 0.03970411
0.00256657 0.50067953 0.05385455
0.33660779 0.68314801 0.70306078
0.32833120 0.15717999 0.70560984
0.65893645 0.83489759 0.38717695
0.85045300 0.17147356 0.70183441
0.17412836 0.83339389 0.37276349
0.82672774 0.66660501 0.70887618
0.17506133 0.34366183 0.37307339
0.01240401 0.00215578 0.02960346
0.66273793 0.33817318 0.37911169
0.49736835 0.00732276 0.03925779
0.50538372 0.49550792 0.04469365
0.00321096 0.49651742 0.04859561
0.33285255 0.68689815 0.70154980
0.32810102 0.15723915 0.71025888
0.66808527 0.83887332 0.38446050
0.83751921 0.15668942 0.69551203
0.17547680 0.83944058 0.37231395
0.82715318 0.66397686 0.70793566
0.17095322 0.33727139 0.37494456
0.00884542 0.00395590 0.03725340
0.66286446 0.34724962 0.37613483
0.49667216 0.00285265 0.04057640
0.50639931 0.49719303 0.05224807
0.00149734 0.49376286 0.04240723
0.33653225 0.68280151 0.70206962
0.32908193 0.15706141 0.71605982
0.66478996 0.82472820 0.38325110
0.83309338 0.16244275 0.70045074
0.17327640 0.83920706 0.37360552
0.82484629 0.65508768 0.70447255
0.15858603 0.32663866 0.37522960
0.99058503 0.99875133 0.03906973
0.66284352 0.34789077 0.37078845
0.50304187 0.99735213 0.03572888
0.51090811 0.50736838 0.05267381
0.99900400 0.50713371 0.04678236
0.34167759 0.67493272 0.70309965
0.33262791 0.15891605 0.71813617
0.65095257 0.80823131 0.38663415
0.84003818 0.18535025 0.70610024
0.17329694 0.83311859 0.37248195
0.81836177 0.64897704 0.70470902
0.15251055 0.32428375 0.37096104
0.98560594 0.99604303 0.03380924
0.65831954 0.33130624 0.36811381
0.50030302 0.99151391 0.03137218
0.51509489 0.51032641 0.04262477
0.00214308 0.52703950 0.05590008
0.34263385 0.67021543 0.70580121
0.33725665 0.16429427 0.71471478
0.64680585 0.80955846 0.38690138
0.84439623 0.20081665 0.70792300
0.17520138 0.82656577 0.37489901
0.81239032 0.64964846 0.70913780
0.15621075 0.32939646 0.36251738
0.00356980 0.99994009 0.02916410
0.65653460 0.31721139 0.37102547
0.48768139 0.98874606 0.03296069
0.51373118 0.50760917 0.03171028
0.00669711 0.53079095 0.05482496
0.34079853 0.67599851 0.70874385
0.34010014 0.16876301 0.71092603
0.66212059 0.82593595 0.37963892
0.83508226 0.18959820 0.70808318
0.16943186 0.82673284 0.37817428
0.81147752 0.65225308 0.71297319
0.16041495 0.33063249 0.36073721
0.02159893 0.00331361 0.03256456
0.66445965 0.32567767 0.37794328
0.48329135 0.98923199 0.03925140
0.50790718 0.50506965 0.03353245
0.99886297 0.51057889 0.04593458
0.33308863 0.67572126 0.71288195
0.33810874 0.16874571 0.71440130
0.68093421 0.84599498 0.37094544
0.82922641 0.16680383 0.70944942
0.17150728 0.84913627 0.37500291
0.81939440 0.65778635 0.71188518
0.15720165 0.32437805 0.36721952
0.01930782 0.00432949 0.03832410
0.67893408 0.34065093 0.37748072
0.49093201 0.98792691 0.04505286
0.49990164 0.50675174 0.03966066
0.99037129 0.48615301 0.03781303
0.32427352 0.66799871 0.71567120
0.33487284 0.16587434 0.72236169
0.68187584 0.85269194 0.36884321
0.83499440 0.16091779 0.71866445
0.17297595 0.86170944 0.37649565
0.82805207 0.65809270 0.70879519
0.15156415 0.31925186 0.37602287
0.00145792 0.00485373 0.03946436
0.68667315 0.34428607 0.37373862
0.49706117 0.99039795 0.04371787
0.49990598 0.50548330 0.03844613
0.99692431 0.48450969 0.04067998
0.33189152 0.67340526 0.70853157
0.32818305 0.16120833 0.72059188
0.66946484 0.84147895 0.37501240
0.83920140 0.17099376 0.72178559
0.17053667 0.85349230 0.38298735
0.83144596 0.65331189 0.70775007
0.15467190 0.31551790 0.38294403
0.99596268 0.00920913 0.03703340
0.67606974 0.33371102 0.37073556
0.49497782 0.99712784 0.04088956
0.50279047 0.50263358 0.03407005
0.01071487 0.50183159 0.04642955
0.34293451 0.67238286 0.69794788
0.32941899 0.15869609 0.71200283
0.66344546 0.83363157 0.37856824
0.84017292 0.18113458 0.71442916
0.17222417 0.84431426 0.38154502
0.83332914 0.65439080 0.70984877
0.16140293 0.31231711 0.38296697
0.00668866 0.01796936 0.03307832
0.66023834 0.32043507 0.36991812
0.48880706 0.99850347 0.04561468
0.50173079 0.50650303 0.03206318
0.01233757 0.50407839 0.04252847
0.33942097 0.65843770 0.69439176
0.33827446 0.16244426 0.70752128
0.67045560 0.83279688 0.37607258
0.84231111 0.17824807 0.70677044
0.17146796 0.84030644 0.37583284
0.83424284 0.66442791 0.70943413
0.16710472 0.31432658 0.38152582
0.00903158 0.01467794 0.03417809
0.65306631 0.32133071 0.36983372
0.48996274 0.99175466 0.05104267
0.50680233 0.52136675 0.03770435
0.00608696 0.49543629 0.03634489
0.33063530 0.65051900 0.69640128
0.33866306 0.16839807 0.70838392
0.67695312 0.83611700 0.37171333
0.83935378 0.16321787 0.70913437
0.16718543 0.84281899 0.37318869
0.83343424 0.67068005 0.70915574
0.16947157 0.31953156 0.38190203
0.99682088 0.00722063 0.03949767
0.66488589 0.33327359 0.36206719
0.49707434 0.98806694 0.05137364
0.50666462 0.52541046 0.04318103
0.99928345 0.48985055 0.03596678
0.32541074 0.65590477 0.70328720
0.33525023 0.16833868 0.70936578
0.66755633 0.83816846 0.37439464
0.82994034 0.15875016 0.71639780
0.16575504 0.84393692 0.37488268
0.83237663 0.66500469 0.70958921
0.16781058 0.32750935 0.38502416
0.98526435 0.00434406 0.04131383
0.68098357 0.34766777 0.35545125
0.50246928 0.99312793 0.04610901
0.50338558 0.51498198 0.04118796
0.99663947 0.49519025 0.03968637
0.32548166 0.66608288 0.70666546
0.33447730 0.16484206 0.70329987
0.65628867 0.82797746 0.38054057
0.82428755 0.16655643 0.71521707
0.16757870 0.84153762 0.37640133
0.83638259 0.66316451 0.70595174
0.16370050 0.33186870 0.38594745
0.98748617 0.00302254 0.04464221
0.67622265 0.35374235 0.35926219
0.49878830 0.99812737 0.04347748
0.50081002 0.49963741 0.04131406
0.99765899 0.50585451 0.04286758
0.33128218 0.66473911 0.70187490
0.33567299 0.16279909 0.69843364
0.66007003 0.82144332 0.37714395
0.82374964 0.16724235 0.70774344
0.16689983 0.83493192 0.37456261
0.84374672 0.67277642 0.70707019
0.15885960 0.32883085 0.38005659
0.00325163 0.00457110 0.04385441
0.66209358 0.33849652 0.36790396
0.49503294 0.00006039 0.04365261
0.49845524 0.49162626 0.04739701
0.99996683 0.50680079 0.04291526
0.33856440 0.65917307 0.70087255
0.33937703 0.16613823 0.69977805
0.67248621 0.82882646 0.37063721
0.82554564 0.16050116 0.70257283
0.15953758 0.82594664 0.36969527
0.84491713 0.68057572 0.71091638
0.15777975 0.33167385 0.37262106
0.01396961 0.00283852 0.03832528
0.66271386 0.32649244 0.37714710
0.49836461 0.00058563 0.04403675
0.50057284 0.49602550 0.05552289
0.99825282 0.49530447 0.04105201
0.34108953 0.66311429 0.70507218
0.34113206 0.17025436 0.70597122
0.67825471 0.84035506 0.37127911
0.82830899 0.15560915 0.70430796
0.15720169 0.82609875 0.37028576
0.84209459 0.67654174 0.71070479
0.16057999 0.33967644 0.37252309
0.00806156 0.00229890 0.03393639
0.67677067 0.33432421 0.37937517
0.50228914 0.00148197 0.04305568
0.50107403 0.50140400 0.05646563
0.99665579 0.48939517 0.03968371
0.33668859 0.67398349 0.70859149
0.33968039 0.17024217 0.71196379
0.67274335 0.84174653 0.37408678
0.82672895 0.15903875 0.71064207
0.16352391 0.83071828 0.37721795
0.83592269 0.66785459 0.71204288
0.16655006 0.34651917 0.37560068
0.99636150 0.00415822 0.03203070
0.68327424 0.34355980 0.37591907
0.49998311 0.00321676 0.03987957
0.49370791 0.49404031 0.04794988
0.00300282 0.50010140 0.04115965
0.33571540 0.68023109 0.71024280
0.33792053 0.16901555 0.70980759
0.66768062 0.83029679 0.37467492
0.82592345 0.16668020 0.71053982
0.16494845 0.82838572 0.37788094
0.83130873 0.66351260 0.71279243
0.17397176 0.34856638 0.37651757
0.99661595 0.00326420 0.03451469
0.67400472 0.34281577 0.37450567
0.49487076 0.00537469 0.04109155
0.48822089 0.48541036 0.03960884
0.01058940 0.51355082 0.04364931
0.33848461 0.67072178 0.71079594
0.33667098 0.16649227 0.70816210
0.66904619 0.82537520 0.37200001
0.82832011 0.16571014 0.70711272
0.16063166 0.82103513 0.37362308
0.83288847 0.66858569 0.71307519
0.17590105 0.34504326 0.37322683
0.00577773 0.00182189 0.03840127
0.65989857 0.33308195 0.37506990
0.49542347 0.00216732 0.04441487
0.49270210 0.49097083 0.03570675
0.00924849 0.51063199 0.04079965
0.33980235 0.65765536 0.71083772
0.33877384 0.17009945 0.71150805
0.67023987 0.83265104 0.36755598
0.83285770 0.16017560 0.70657019
0.15786089 0.81711471 0.37230930
0.83468414 0.67443129 0.71183175
0.17140698 0.34129489 0.37050040
0.00509146 0.99990142 0.04257055
0.65692022 0.32666155 0.37554101
0.50305168 0.99908488 0.04444959
0.50122134 0.50316811 0.03764401
0.00374738 0.49983866 0.03759114
0.33519863 0.65931800 0.70923862
0.34193654 0.17676433 0.71198176
0.66825503 0.84351741 0.36880931
0.83628344 0.16123836 0.70611254
0.15942609 0.82123035 0.37484927
0.83067999 0.67188857 0.70817096
0.16711255 0.33875658 0.37543583
0.99532483 0.99554701 0.04571747
0.66482159 0.33151509 0.37747216
0.50765590 0.00224592 0.04190428
0.50325012 0.50603434 0.03947031
0.00290851 0.49753453 0.03968767
0.32836302 0.66929619 0.70694727
0.33828330 0.17361211 0.70845966
0.66636887 0.84849425 0.37261384
0.83434331 0.16578310 0.70851716
0.16821054 0.83452536 0.37570619
0.82655546 0.66612561 0.70736287
0.16656437 0.33453996 0.38049117
0.99181063 0.99324357 0.04877627
0.67048858 0.33576736 0.37872166
0.50494983 0.00702060 0.04072676
0.49516098 0.49623361 0.03616205
0.00459453 0.50159615 0.04168043
0.32711941 0.67236913 0.70852081
0.32784129 0.16467027 0.70113320
0.66451803 0.83974588 0.37361430
0.83262499 0.17092725 0.70914969
0.17475911 0.84231379 0.37534393
0.82866093 0.66511449 0.70579499
0.16804264 0.33125320 0.37841158
0.99889121 0.99656049 0.05281074
0.66775785 0.33053437 0.38040822
0.50057273 0.00856438 0.04311194
0.48965649 0.48673954 0.03549786
0.00416473 0.50395326 0.04142934
0.33016506 0.66358812 0.70999149
0.32345900 0.16155827 0.69912211
0.67085365 0.83317814 0.37061253
0.83382476 0.16825321 0.70643381
0.17290796 0.83937118 0.37626063
0.83443767 0.67036453 0.70383418
0.16898645 0.32953433 0.37316569
0.00573034 0.00215413 0.05132898
0.66178742 0.32088036 0.38118658
0.50279307 0.00675672 0.04328526
0.49868148 0.49172333 0.03954396
0.00168551 0.50049249 0.03968868
0.33246590 0.65873161 0.71126704
0.33095377 0.16895860 0.70558928
0.68119322 0.84010179 0.36812912
0.83541989 0.16333568 0.70614510
0.16747729 0.83390501 0.37535485
0.83676487 0.67080408 0.70325071
0.17028196 0.33295995 0.37159282
0.00587390 0.00540758 0.04670012
0.66178365 0.31994950 0.37802833
0.50735782 0.00448262 0.04130058
0.51152418 0.50529824 0.04251861
0.99968008 0.49549962 0.03858073
0.32912437 0.66387351 0.71084191
0.33636454 0.17312970 0.70985611
0.67646374 0.84119551 0.37472475
0.83565471 0.16688735 0.70878938
0.16494728 0.83468641 0.37395256
0.83480204 0.66408271 0.70112180
0.17354644 0.33990188 0.37725140
0.99879240 0.00102582 0.04542599
0.66731139 0.33051480 0.37740792
0.50524843 0.00486145 0.04050671
0.51280364 0.50961558 0.04202587
0.99887661 0.49835262 0.03868998
0.32384719 0.67174373 0.70825365
0.32994050 0.16516898 0.70721499
0.66064026 0.82922896 0.38126992
0.83578451 0.17233272 0.71294854
0.16993914 0.84320231 0.37277933
0.83384466 0.66171146 0.70157469
0.17481982 0.33910997 0.37902710
0.99091577 0.99222906 0.04672938
0.66685630 0.33785121 0.37614673
0.49939049 0.00593366 0.03926622
0.50152968 0.50022620 0.03941351
0.99954792 0.50445162 0.03876295
0.32443183 0.66891975 0.71072474
0.32590679 0.15783549 0.70557659
0.65479993 0.81772064 0.38077891
0.83579236 0.17280505 0.71312577
0.17784852 0.84324047 0.37057930
0.83519464 0.66615178 0.70431574
0.17355809 0.33564900 0.37419308
0.98957509 0.98759881 0.04639666
0.66107786 0.33555896 0.37255562
0.50092047 0.00352595 0.03766255
0.49323354 0.49251342 0.04074013
0.99913700 0.50414705 0.04095825
0.33093575 0.66040484 0.71170438
0.32979061 0.16082828 0.71219737
0.66381792 0.82118817 0.37683159
0.83493758 0.16825286 0.70792144
0.17597974 0.83080515 0.37154758
0.83915354 0.67231344 0.70719946
0.16880295 0.33470662 0.37041035
0.99242194 0.99014876 0.04071687
0.65940226 0.33317240 0.37082411
0.50761490 0.99784590 0.03432903
0.50104842 0.49979063 0.04723350
0.99529489 0.49782892 0.04320383
0.33334055 0.65878894 0.70720037
0.33392028 0.17077157 0.72053046
0.66980262 0.83342430 0.37519461
0.83623436 0.16290607 0.70370135
0.16830006 0.82461348 0.37436905
0.83952235 0.67232203 0.71132038
0.16290582 0.33588829 0.37021360
0.99459447 0.99797181 0.03375491
0.66430437 0.33481214 0.37285554
0.50680330 0.99477550 0.03076858
0.51164469 0.51386426 0.04969923
0.99387281 0.49436272 0.04454083
0.33114158 0.66906637 0.70596611
0.33132501 0.17092873 0.71675117
0.66012896 0.83781384 0.37960308
0.84091703 0.16541057 0.70241386
0.17091272 0.83455107 0.37507862
0.83896948 0.66516709 0.70827208
0.15928683 0.33800130 0.37230636
0.99720683 0.00143736 0.03419805
0.67363076 0.33913055 0.37873731
0.49575736 0.99670644 0.03057890
0.50806319 0.51485203 0.04481325
0.99374148 0.49600380 0.04554966
0.32807396 0.67789806 0.70645048
0.32547082 0.15913888 0.70878440
0.65056476 0.82921272 0.38289748
0.84288786 0.16908616 0.70960865
0.18208761 0.85072385 0.37363149
0.83991225 0.66407709 0.70248242
0.15816149 0.33335523 0.37050812
0.00178992 0.00290103 0.03731537
0.68197293 0.34365412 0.37954837
0.48765180 0.00184668 0.03643975
0.49619083 0.50115367 0.03742846
0.99340439 0.49905327 0.04409454
0.33657249 0.67355478 0.71046562
0.32556505 0.15153311 0.71068105
0.65406361 0.81921349 0.37912619
0.83401030 0.16732607 0.71438764
0.18647352 0.85340983 0.37306849
0.84058377 0.67022620 0.70345197
0.15840226 0.32600077 0.36447594
0.00806482 0.00954404 0.03680538
0.68031302 0.34260553 0.37212124
0.48912524 0.00084996 0.04433674
0.48954643 0.48935127 0.03426304
0.99877607 0.50317242 0.04634561
0.35042133 0.66032242 0.71396212
0.33470046 0.16164758 0.72011679
0.67235440 0.82436699 0.37677294
0.82685689 0.16777661 0.70876677
0.17508797 0.84171401 0.37463600
0.83882172 0.67291256 0.70821960
0.15182373 0.32363711 0.36689994
0.01355439 0.01540474 0.03279048
0.67542885 0.34159800 0.36780570
0.49015738 0.99074642 0.04518982
0.49804780 0.49727543 0.03529973
0.99824468 0.50434136 0.04971827
0.35291349 0.65534721 0.70929151
0.34396992 0.18046943 0.72476243
0.67967532 0.84247370 0.38000004
0.83086662 0.16699568 0.70541807
0.16198062 0.83547903 0.37912897
0.82972877 0.66793471 0.71146015
0.14721906 0.32400759 0.37250776
0.01460017 0.01275708 0.03298448
0.67016882 0.34458074 0.37073477
0.48765448 0.97869046 0.03967205
0.51265928 0.51816672 0.03619557
0.99134565 0.49966127 0.04824992
0.35073382 0.66686630 0.70737523
0.34701264 0.18565147 0.71913655
0.66605220 0.84712961 0.37963185
0.83586466 0.16930599 0.70524736
0.16058726 0.84431785 0.38361127
0.82155314 0.65778559 0.70684174
0.15432606 0.32485689 0.37865760
0.00796478 0.00186377 0.04199617
0.66921841 0.34526624 0.37418621
0.49058894 0.97724271 0.03290325
0.51407707 0.52349263 0.03921481
0.99312907 0.49556647 0.04941246
0.34823424 0.67840097 0.70669609
0.34133447 0.17197055 0.70873217
0.64891415 0.82760073 0.37681941
0.83554364 0.17633444 0.70558980
0.16181899 0.84957912 0.38297193
0.82453532 0.65519645 0.70397577
0.16318960 0.32236482 0.38481340
0.99675548 0.99781978 0.04539534
0.66980607 0.33946832 0.37136976
0.49673499 0.98196885 0.03197594
0.49625657 0.50595800 0.03756313
0.00345733 0.49342259 0.05172470
0.34455384 0.67123793 0.70204223
0.33199914 0.15771014 0.70359666
0.65375008 0.82183745 0.37347770
0.83067037 0.17950331 0.70319686
0.15968319 0.83928683 0.37106787
0.82905250 0.66045480 0.71120879
0.16385903 0.31710517 0.38191081
0.98993622 0.00186099 0.04251226
0.66413731 0.32821407 0.36493422
0.50011907 0.98581155 0.04323263
0.48479918 0.48986811 0.04011335
0.00828960 0.49729242 0.05203541
0.33861218 0.65891246 0.69843708
0.32581569 0.16310055 0.70724260
0.67319511 0.83987326 0.37178852
0.83466300 0.18381241 0.69836779
0.15929964 0.83136745 0.37168048
0.83116247 0.65852100 0.71273820
0.16105398 0.31635717 0.37774421
0.99198519 0.00206228 0.03938880
0.66260129 0.32423466 0.36960483
0.50318533 0.99322004 0.05231868
0.50066901 0.49876591 0.04672401
0.00282875 0.50450928 0.04540102
0.33024782 0.66206475 0.69974275
0.32552647 0.17361950 0.70943392
0.68224130 0.85329928 0.36974861
0.84807392 0.19182364 0.70213791
0.15946739 0.83712662 0.38198288
0.83689798 0.65549689 0.70777861
0.16195140 0.32027925 0.37562763
0.00246042 0.99744884 0.03875444
0.67103627 0.33309747 0.37550410
0.51054514 0.00205581 0.05016827
0.51925728 0.51909447 0.04721050
0.99874604 0.50391470 0.03289313
0.33469243 0.68413944 0.70651695
0.32467214 0.16901239 0.70041996
0.66753297 0.83924608 0.36857079
0.85349147 0.19412608 0.71080300
0.16137468 0.84662724 0.38459001
0.84175237 0.65931730 0.70494750
0.17647937 0.33375581 0.38057013
0.01133582 0.99275404 0.04238875
0.67843024 0.34145713 0.37099276
0.50761348 0.00359103 0.04562691
0.51203617 0.51923656 0.04152456
0.00538593 0.50054754 0.02396945
0.34300982 0.70154111 0.71335469
0.32218735 0.15383355 0.69863129
0.65473529 0.82038491 0.37045911
0.84565880 0.18453050 0.71362982
0.16194913 0.84109362 0.37905582
0.83572968 0.66083556 0.71197035
0.17857465 0.34001229 0.38730796
0.00665520 0.99433261 0.04557308
0.68195485 0.33861959 0.36446266
0.50024122 0.00103882 0.04097524
0.48733684 0.49107603 0.03974540
0.00794822 0.50190078 0.02282219
0.33713132 0.68707996 0.72020454
0.32442915 0.15215517 0.70474198
0.65734365 0.81764878 0.36932575
0.83070992 0.16843773 0.71265687
0.16286612 0.82808327 0.36907892
0.82691451 0.66194377 0.72330635
0.16304426 0.33293184 0.38494911
0.99872913 0.00009809 0.04317842
0.67335866 0.32858422 0.36325448
0.49805413 0.99645636 0.04054922
0.48375350 0.47853086 0.04672867
0.00500818 0.51027418 0.03169135
0.33327583 0.67162292 0.71846011
0.32849456 0.16222040 0.70933315
0.67204563 0.82779225 0.36862479
0.82081164 0.15893019 0.71095791
0.16213309 0.82066163 0.36641437
0.82551809 0.67223583 0.72560836
0.15112853 0.32466064 0.38138643
0.00475178 0.00581775 0.03449848
0.66335193 0.32302538 0.37024323
0.50316747 0.99574354 0.04448526
0.50135072 0.49877003 0.05201816
0.00455177 0.50800907 0.03665185
0.34242052 0.67460050 0.70823850
0.33284986 0.16923940 0.71052390
0.67550414 0.83590203 0.36782732
0.82465799 0.16313597 0.70973504
0.16082694 0.82212045 0.37434423
0.82556073 0.67359994 0.71556838
0.15700497 0.32708765 0.38266034
0.01360565 0.01147216 0.02929261
0.66480070 0.32895597 0.37726768
0.51302566 0.00247379 0.04909915
0.50576901 0.51409077 0.04632364
0.00311987 0.49479800 0.03324883
0.34713131 0.67998515 0.70487989
0.33186764 0.16805353 0.70768818
0.66434023 0.83605393 0.37003644
0.83233405 0.16567414 0.70856311
0.15974036 0.82622425 0.37959838
0.82729244 0.66826605 0.70569224
0.17207081 0.33691113 0.38062280
0.01065293 0.01007339 0.03154580
0.67024627 0.33695790 0.37394138
0.51305643 0.00802524 0.04857907
0.49020959 0.50094552 0.03838495
0.00482295 0.49335360 0.03615481
0.34193449 0.67891004 0.71020254
0.33068638 0.16697463 0.70428843
0.66005132 0.83189867 0.37362355
0.83588254 0.15999479 0.71056222
0.15804193 0.82505597 0.37744730
0.83018496 0.66433063 0.70536855
0.17345729 0.33908743 0.37637533
0.99758961 0.00209747 0.03604656
0.67216446 0.33641727 0.36977193
0.50769856 0.01064337 0.04519604
0.48136317 0.48116831 0.03745779
0.00152343 0.49887891 0.04390445
0.32957428 0.66555738 0.71452883
0.33950982 0.17065738 0.70520749
0.66890285 0.83257632 0.37327173
0.83213212 0.15377441 0.71164656
0.16274023 0.82254197 0.37140353
0.83147308 0.66572337 0.71167469
0.16439756 0.33525045 0.36886333
0.98792861 0.99360978 0.03723303
0.67036271 0.32861901 0.37205650
0.50239736 0.00906995 0.04589920
0.49217772 0.48225490 0.04567728
0.99555395 0.50333110 0.04716814
0.32606272 0.66186360 0.71262232
0.34510751 0.17374631 0.70502409
0.67821350 0.83519821 0.37145924
0.83023455 0.15764201 0.70677429
0.16737098 0.82603592 0.37253736
0.83499624 0.67296455 0.71350597
0.16473471 0.33392333 0.36675382
0.99379624 0.99642824 0.03756427
0.66973890 0.33129795 0.37732931
0.50013474 0.00711286 0.04851065
0.50454218 0.49791368 0.04962277
0.99577670 0.50356250 0.04167283
0.33486293 0.67324810 0.70889411
0.34144185 0.17117790 0.70480630
0.67647973 0.83782856 0.37107275
0.82944268 0.16487398 0.70291881
0.16666012 0.82797936 0.37809790
0.84115438 0.67827220 0.71060220
0.17244551 0.34036376 0.37101870
0.00691406 0.00680430 0.04299556
0.67231546 0.34217718 0.37976235
0.49984861 0.00918371 0.04495665
0.50550219 0.50630980 0.04225557
0.99957863 0.50038818 0.03580309
0.33956550 0.67833643 0.70805912
0.33556562 0.16425434 0.70486032
0.66584741 0.83685140 0.37124687
0.82813398 0.16535807 0.70330716
0.16528390 0.82602124 0.37680453
0.84431851 0.67841037 0.70833256
0.17795934 0.34730347 0.37549304
0.01019335 0.00751980 0.05316866
0.67223657 0.34551511 0.37748327
0.49290002 0.00497175 0.03938780
0.49785911 0.50099562 0.03675887
0.00255724 0.50190115 0.03744627
0.33420848 0.66789444 0.70876234
0.33729510 0.16200649 0.70484883
0.66357319 0.83404232 0.37134815
0.82557735 0.16074305 0.70637499
0.16705378 0.82973937 0.37255276
0.83970093 0.67465657 0.70797954
0.17376069 0.34192197 0.37879517
0.00019809 0.99866147 0.05742130
0.66836492 0.33712734 0.37464559
0.48617832 0.99602655 0.03690345
0.49141618 0.49126047 0.03891297
0.00250513 0.50671713 0.04371040
0.32655757 0.65389744 0.71015308
0.34443065 0.16776173 0.70704446
0.66840195 0.83250206 0.37030754
0.82387552 0.16060487 0.70828653
0.16953157 0.83427722 0.37071928
0.83586884 0.67178187 0.71148584
0.16494435 0.33264671 0.37614243
0.99079836 0.99507734 0.05087280
0.66372883 0.32867582 0.37595919
0.49018993 0.99300766 0.03914421
0.49444529 0.49363574 0.04236835
0.00027686 0.50547215 0.04616548
0.32564909 0.65197959 0.71085144
0.34195204 0.17135012 0.71017530
0.67318964 0.83528481 0.37325056
0.82861322 0.16597764 0.70661918
0.16985140 0.83515113 0.37287269
0.84010201 0.67342887 0.71162218
0.16009181 0.32905532 0.36972183
0.99730054 0.99974023 0.04176158
0.66131294 0.33201531 0.38054096
0.49467562 0.99361553 0.04177286
0.50124220 0.50585537 0.04110528
0.99916832 0.49853694 0.04166807
0.33076558 0.66088032 0.71004618
0.33237857 0.17147806 0.71210920
0.67210213 0.83969639 0.37717880
0.83737264 0.17135566 0.70667517
0.16933178 0.83725958 0.37604602
0.84009466 0.67035248 0.70574104
0.16616949 0.33215315 0.36947208
0.00540627 0.99901166 0.04067722
0.66403604 0.33898019 0.37970542
0.49931820 0.99750112 0.04086171
0.50164834 0.50830146 0.03482353
0.00036508 0.49297978 0.03636380
0.33398721 0.66658002 0.70985119
0.32839658 0.16926215 0.71162475
0.66685564 0.84046211 0.37716929
0.84095929 0.17297909 0.70947394
0.16954063 0.84085572 0.37601750
0.83349514 0.66260245 0.70348718
0.17633573 0.33699425 0.37452509
0.00047909 0.99084395 0.04611594
0.66632427 0.33522969 0.37398320
0.50364356 0.00130851 0.03667073
0.49776349 0.49707254 0.03482074
0.00174618 0.49667724 0.03726923
0.32891099 0.66236593 0.71040936
0.32884289 0.16658422 0.70827940
0.66684974 0.83749609 0.37777581
0.83991379 0.17124837 0.71105387
0.16951498 0.84451603 0.37364906
0.83012052 0.65989199 0.70482000
0.17574423 0.33478552 0.37853396
0.99151557 0.99180486 0.04778634
0.66139544 0.32504189 0.37228355
0.50647879 0.00327705 0.03501189
0.50334041 0.49254655 0.04212448
0.00049590 0.50205785 0.04234604
0.32188773 0.65614287 0.70907048
0.33317883 0.16914702 0.70909357
0.66888383 0.83393698 0.37761613
0.83979253 0.17181616 0.71128784
0.16941660 0.84358611 0.37267632
0.83183598 0.66297294 0.70582740
0.16654401 0.33091110 0.37647335
0.99015457 0.00232603 0.04202375
0.65983701 0.32202056 0.37707730
0.51053592 0.00558236 0.03654987
0.51261801 0.49971059 0.04537665
0.99557198 0.49974158 0.04496306
0.32613236 0.66243169 0.70553487
0.32945568 0.16949701 0.71122561
0.66257464 0.82896426 0.37493903
0.84342130 0.17555941 0.70782846
0.16952132 0.83699092 0.37558557
0.83643568 0.66739087 0.70316725
0.16519003 0.33408451 0.37320557
0.00060185 0.00922465 0.03561819
0.66275981 0.32935390 0.38155201
0.51269947 0.00795761 0.03929654
0.51011537 0.50614213 0.04136957
0.99592176 0.49800403 0.04075724
0.33614053 0.67337728 0.70260741
0.32128592 0.16463150 0.71001818
0.65735272 0.82958465 0.37516963
0.84351179 0.17671009 0.70785817
0.16907282 0.83074342 0.37854916
0.83399641 0.66539620 0.70072675
0.16920868 0.33721236 0.37162634
0.00942994 0.00387448 0.03658505
0.66255003 0.33516217 0.37815234
0.51236071 0.01033746 0.04214560
0.50449039 0.50604604 0.03827574
0.00035102 0.49768116 0.03863395
0.34102139 0.67366454 0.70431088
0.32277085 0.15861735 0.71031518
0.65773724 0.83144058 0.37892943
0.83738720 0.17323482 0.71206087
0.17086092 0.82989553 0.37602625
0.82256213 0.65641977 0.70371539
0.16865177 0.33686405 0.37096696
0.00124980 0.99301764 0.04176325
0.66454275 0.33535518 0.37167838
0.50880398 0.00807033 0.04355546
0.50228955 0.50170753 0.04040800
0.00152211 0.49773859 0.04373090
0.33662863 0.66660801 0.70808373
0.33077233 0.15714607 0.71227825
0.65887444 0.82690968 0.38266108
0.83218806 0.16869823 0.71024483
0.17183018 0.83482055 0.37411728
0.81601700 0.65488103 0.70797565
0.16225045 0.33343881 0.36964840
0.98868381 0.99120554 0.04264891
0.67276922 0.33462619 0.36828910
0.50081170 0.99945446 0.04478179
0.49992926 0.49712589 0.04684730
0.99928450 0.49868083 0.05059633
0.33128882 0.66729544 0.70875108
0.33794523 0.16694191 0.71516799
0.65923766 0.82300393 0.38275904
0.83135417 0.16858909 0.70503018
0.16744978 0.83831550 0.37628610
0.82112612 0.66093752 0.71169594
0.15829063 0.33081288 0.36666227
0.99455492 0.00272151 0.03274890
0.67974405 0.33477150 0.36933819
0.49721517 0.99505827 0.04457908
0.49838515 0.49872481 0.04664048
0.99278340 0.49732128 0.04884857
0.33519806 0.67551878 0.70628028
0.33824521 0.17431373 0.71657792
0.66093380 0.82859571 0.37795576
0.83650752 0.17215435 0.70224941
0.16434888 0.83434720 0.37895467
0.83272408 0.66676099 0.71350493
0.16488246 0.33344392 0.36546541
0.01478287 0.01235451 0.03005094
0.67998762 0.33727068 0.37134000
0.49661629 0.99643658 0.04028658
0.49891702 0.50498351 0.04192696
0.99413312 0.50038081 0.04249673
0.34197379 0.68077650 0.70435874
0.33390543 0.16606084 0.71290672
0.66940849 0.83954473 0.37531131
0.83720828 0.17160764 0.70221195
0.16692318 0.83507924 0.37859304
0.83441403 0.66331168 0.71064758
0.17072682 0.33251732 0.36771315
0.02104090 0.01076159 0.04397696
0.67100042 0.33785158 0.36778704
0.49580029 0.99841750 0.03496162
0.50195874 0.50402488 0.04179499
0.00460976 0.50682500 0.04252888
0.34186415 0.67575877 0.70475498
0.32985990 0.15216428 0.70829573
0.67793248 0.84542143 0.37450524
0.83042391 0.16920427 0.70886112
0.16619478 0.83562748 0.37148459
0.82622898 0.65391792 0.71003637
0.16663908 0.32782125 0.37385030
0.00632419 0.00357990 0.05492359
0.66466896 0.33450323 0.36466704
0.49756771 0.99884360 0.03274101
0.50731627 0.49950066 0.04535151
0.00897047 0.50954893 0.04885954
0.33402282 0.66511795 0.70627122
0.32773467 0.15075401 0.70590889
0.67767789 0.83963170 0.37508509
0.82618345 0.16786117 0.71696106
0.16547198 0.83363412 0.36784300
0.82896586 0.65834046 0.71023088
0.15927575 0.32246373 0.38120901
0.99316287 0.99943356 0.04953184
0.66986395 0.33551706 0.37200455
0.49574789 0.99265846 0.03762444
0.50740989 0.50261021 0.04789434
0.00258715 0.50944525 0.05002155
0.33173603 0.66383965 0.70268669
0.33665788 0.16741210 0.70616630
0.67168503 0.83119809 0.37016897
0.83312632 0.17312387 0.71982749
0.16922205 0.83358925 0.37572092
0.84170959 0.67335363 0.70751996
0.15562247 0.32056079 0.38180613
0.99959114 0.00575523 0.03575240
0.68083184 0.34339971 0.38136297
0.49169643 0.98508126 0.04398372
0.49302791 0.50184323 0.04012611
0.99341442 0.50797900 0.03628488
0.33901789 0.66827784 0.70548395
0.34545350 0.18085658 0.70469321
0.66467895 0.82735857 0.36254926
0.84161222 0.17831573 0.71509978
0.17090531 0.83062762 0.38406395
0.84588579 0.67853272 0.70715791
0.16046973 0.32553315 0.37690335
0.00938709 0.01053926 0.03336997
0.68389827 0.35114759 0.38248128
0.48624021 0.98015167 0.04395010
0.47957676 0.50060244 0.03000121
0.99665430 0.50355377 0.02304375
0.34477239 0.67052885 0.71468799
0.34022274 0.17475665 0.70090263
0.66038286 0.82903194 0.36420848
0.83749059 0.16824630 0.70845500
0.16807704 0.82510951 0.38543949
0.83411884 0.66833183 0.70904199
0.16650246 0.32908886 0.37872319
0.00660886 0.00026254 0.04554467
0.68076562 0.35370088 0.37853398
0.48370681 0.98392832 0.04359721
0.47560270 0.49895757 0.02886059
0.00640547 0.49931200 0.02321385
0.34125698 0.66507744 0.71555488
0.34172842 0.16927037 0.70284656
0.66282678 0.82858523 0.36887897
0.83399261 0.15787806 0.71125201
0.16520870 0.83076123 0.37976585
0.82123093 0.65533439 0.71191251
0.16464785 0.32828670 0.38724569
0.99459406 0.99321654 0.05232319
0.67769226 0.35103965 0.37283908
0.49648852 0.99925246 0.04856580
0.47829139 0.49407871 0.03578788
0.00265896 0.49376897 0.03371189
0.32934265 0.65445254 0.70872846
0.35612226 0.18404230 0.70172505
0.67187484 0.83010788 0.37072390
0.82873745 0.15332374 0.71316124
0.16559739 0.84417261 0.37418676
0.82345665 0.65821586 0.70902013
0.16302785 0.33116240 0.39247697
0.98686866 0.00408530 0.04312123
0.67058624 0.34110498 0.37543537
0.50749799 0.00678251 0.05178195
0.48555651 0.49417177 0.04619724
0.99080355 0.48464572 0.04206039
0.33021448 0.65263588 0.70287861
0.35513403 0.19082758 0.70283614
0.67914790 0.83524907 0.36736752
0.82743412 0.15881892 0.71065375
0.16609501 0.84555972 0.37011870
0.83730665 0.67053406 0.70439858
0.16808480 0.33478229 0.38869989
0.99245691 0.01664765 0.02951352
0.66188994 0.33005161 0.38309922
0.49529935 0.99960882 0.04738788
0.49311968 0.49248268 0.05092544
0.98578207 0.48134535 0.03678687
0.33953998 0.66377429 0.70229578
0.33480608 0.18018173 0.70331059
0.67972313 0.83953152 0.36301012
0.83651505 0.16698828 0.70985630
0.16466192 0.83029926 0.36606721
0.84623729 0.68034367 0.70435335
0.17293395 0.33631973 0.38045830
0.99759218 0.00425081 0.02533709
0.65741443 0.32075579 0.38052609
0.48049742 0.99234845 0.04447713
0.49731162 0.48891305 0.04834545
0.99286111 0.49704847 0.03180824
0.34541399 0.67815875 0.70250616
0.32332296 0.16826252 0.70470288
0.67211692 0.83768281 0.36803825
0.84426999 0.16725151 0.70923630
0.16700000 0.82189187 0.36930903
0.84140482 0.67688618 0.70980836
0.17468068 0.33971197 0.37897271
0.99644652 0.98630163 0.03038121
0.65773119 0.31581589 0.37340270
0.48083233 0.99403798 0.04445501
0.49930585 0.49013376 0.04256489
0.00494935 0.51391180 0.03450955
0.34047416 0.67799896 0.70263441
0.33363128 0.16618735 0.71022011
0.66890778 0.83821411 0.37675047
0.83879082 0.16262046 0.71345254
0.16995496 0.82820245 0.37886840
0.83222265 0.67078115 0.71349030
0.17133002 0.34513649 0.37914284
0.99499133 0.98783909 0.03869828
0.66016683 0.32325193 0.37083243
0.49894134 0.00881400 0.04564661
0.50405644 0.49210110 0.04153301
0.00918410 0.50903615 0.04150250
0.32762889 0.66306045 0.70628499
0.33861489 0.16407240 0.70774960
0.66867927 0.84039462 0.38051446
0.82572873 0.15484419 0.71463890
0.16987302 0.83669901 0.38508379
0.83182238 0.67295132 0.71235069
0.16668612 0.34726548 0.37577966
0.99389909 0.99840154 0.03988149
0.66317755 0.33791937 0.37248296
0.51679997 0.01661277 0.05019001
0.50485274 0.49256844 0.04725226
0.00507240 0.49772763 0.04382642
0.32266861 0.66064178 0.70625045
0.33270763 0.16284887 0.70236540
0.66526173 0.83815044 0.37835027
0.82053409 0.14986286 0.70765853
0.16518422 0.83551610 0.38238713
0.83790443 0.68043568 0.71177971
0.16739555 0.34430329 0.37147681
0.99708573 0.00222729 0.03486258
0.66534612 0.34482068 0.37506733
0.51485531 0.00992815 0.04898244
0.49979773 0.48983677 0.04808298
0.00147717 0.49895692 0.03282644
0.33161897 0.66970118 0.71076449
0.33006949 0.16606011 0.70318577
0.66173071 0.83357810 0.37310683
0.83051619 0.15884371 0.69978180
0.15595249 0.82334699 0.37503916
0.83879640 0.67949978 0.71314943
0.17057887 0.33863270 0.36872642
0.00301861 0.99724550 0.03705605
0.66567717 0.33822288 0.37655092
0.50084292 0.00639246 0.03959269
0.49585664 0.48840020 0.04274011
0.00468283 0.50117718 0.03073595
0.34138881 0.67521571 0.71686215
0.33335402 0.16782479 0.70683009
0.66423674 0.83212681 0.37294311
0.83676523 0.16825343 0.70177023
0.15573325 0.81862253 0.37361614
0.83067189 0.67060632 0.71108931
0.17349943 0.33419001 0.37096610
0.00071029 0.99453910 0.04454560
0.66713623 0.32803117 0.37623228
0.49244778 0.00495862 0.03071525
0.49729493 0.49362035 0.03660856
0.01386654 0.49626308 0.04416914
0.34044763 0.67132585 0.71525254
0.33623377 0.16738352 0.70958859
0.67060086 0.83387836 0.37444509
0.83213831 0.16752087 0.71056721
0.15847791 0.82706333 0.37696698
0.82568475 0.66368825 0.70499999
0.17295463 0.33206865 0.37703745
0.99529040 0.99923113 0.04807495
0.67019398 0.32820897 0.37509822
0.49938321 0.00734510 0.02899031
0.50042915 0.49741274 0.03739780
0.01597145 0.49618722 0.05116947
0.33113554 0.66483791 0.71102922
0.33674436 0.16553657 0.70841745
0.67299775 0.83638905 0.37125928
0.82572224 0.16064293 0.71274353
0.15770899 0.83432057 0.37551658
0.83401205 0.66765798 0.70204364
0.16661018 0.33228651 0.37774698
0.99801895 0.00364613 0.04668045
0.67116222 0.33393683 0.37617058
0.50632463 0.00635352 0.03307886
0.50310339 0.49885459 0.04398558
0.01270499 0.50754576 0.04748331
0.32679252 0.66263476 0.70924611
0.33447550 0.16493346 0.70714483
0.67351100 0.83921131 0.37284040
0.82884224 0.16224993 0.70864797
0.15934874 0.83405170 0.37014750
0.83990375 0.67262032 0.70267890
0.16381211 0.33627875 0.37220505
0.00577369 0.00428803 0.04230197
0.66530299 0.33329346 0.38021757
0.50587209 0.00306924 0.03612764
0.50312964 0.50175145 0.04105185
0.00473432 0.51139304 0.04097318
0.33188350 0.66251533 0.71138993
0.33106631 0.16334056 0.70849665
0.67160512 0.83733567 0.37878459
0.83937073 0.17544897 0.70502797
0.16551181 0.82966173 0.36752877
0.83760385 0.66896973 0.70287976
0.16749332 0.34089644 0.36651160
0.00375418 0.99999734 0.04594696
0.65970703 0.32635134 0.37922561
0.49767898 0.99987756 0.03560198
0.50458439 0.50829292 0.03485077
0.00128273 0.50723868 0.03925812
0.33404381 0.66265557 0.71249624
0.33217709 0.16331389 0.70988037
0.66613196 0.83208547 0.38084242
0.84206906 0.17931760 0.70681150
0.17429511 0.82889453 0.37380127
0.83289713 0.66151319 0.70192264
0.17020820 0.33902860 0.36940147
0.99281767 0.99296725 0.05266577
0.65962063 0.32255382 0.37539211
0.49543234 0.99789266 0.03560996
0.50826651 0.51473375 0.03564981
0.00389108 0.50258884 0.04220068
0.32845515 0.66343845 0.71052144
0.33411236 0.16677268 0.70988696
0.66222341 0.82894767 0.37836846
0.83455180 0.16867426 0.71079248
0.17795997 0.83338276 0.37870803
0.83008907 0.65925931 0.70264823
0.16898038 0.33206909 0.37739641
0.98977519 0.98974601 0.05028791
0.66282141 0.33012786 0.37606161
0.50246489 0.99930012 0.03808752
0.50949264 0.51330156 0.03963298
0.00365729 0.50261151 0.04120755
0.32298655 0.66213529 0.70828705
0.33253086 0.16731365 0.70980333
0.65968701 0.82967014 0.37318998
0.83008919 0.16355144 0.70833571
0.17725091 0.84069287 0.37374178
0.83102025 0.66224712 0.70418789
0.16602537 0.33202391 0.37935206
0.99874316 0.99371270 0.04278330
0.66554293 0.33892568 0.37961948
0.50747015 0.00103130 0.04194404
0.50567133 0.50615640 0.04342269
0.99647842 0.50537996 0.03829453
0.32194896 0.66007313 0.70746830
0.32949471 0.16449411 0.71056313
0.65780216 0.82971614 0.37086007
0.83708831 0.16981391 0.70324631
0.17888397 0.84677773 0.36699980
0.83131338 0.66500393 0.70500193
0.16576167 0.33684350 0.37578754
0.00799143 0.00189006 0.03659896
0.66362352 0.33514562 0.38174658
0.50704859 0.00070467 0.04232481
0.50090558 0.50276714 0.04310303
0.99041265 0.50059734 0.03972760
0.32725787 0.66088112 0.70840647
0.32680237 0.16117874 0.71211787
0.66256840 0.82991286 0.37286166
0.84839677 0.17839056 0.70410995
0.17705377 0.84417720 0.36756199
0.83264730 0.66499179 0.70693859
0.16755144 0.33603338 0.37155285
0.00739762 0.00715804 0.03664122
0.66054368 0.32593108 0.37955528
0.50381853 0.00121107 0.04010918
0.50069107 0.50523600 0.04120118
0.98888493 0.48943062 0.04571115
0.33385420 0.66363155 0.70909386
0.32745483 0.16171920 0.71322112
0.66890868 0.83092650 0.37522388
0.84788641 0.17736194 0.70847974
0.17184112 0.83722365 0.37360829
0.83721115 0.66560834 0.70966850
0.16846951 0.33181806 0.37035162
0.99812390 0.00496165 0.04049005
0.66401702 0.32358553 0.37540326
0.49968430 0.00197023 0.03928409
0.50178014 0.50636836 0.04309753
0.99115441 0.48709911 0.05072577
0.33534313 0.66645791 0.70761462
0.33116412 0.16780884 0.71267909
0.66946797 0.83114145 0.37804952
0.83690068 0.16673919 0.71074717
0.16729283 0.83588625 0.37722141
0.84132072 0.67146331 0.71038180
0.16689164 0.32998020 0.37279511
0.99300706 0.00226768 0.03895190
0.67208273 0.33149267 0.37293979
0.50027530 0.00234431 0.04082304
0.50044095 0.50249315 0.04503090
0.99340503 0.49520578 0.04747185
0.33548867 0.66687872 0.70804594
0.33367627 0.16939272 0.71145486
0.66511889 0.83082855 0.38048042
0.83019088 0.16244945 0.70790840
0.16696241 0.84030639 0.37339490
0.84327236 0.67762811 0.70977087
0.16418488 0.33315944 0.37158153
0.00237626 0.00281841 0.03238751
0.67775200 0.34321913 0.37165476
0.49960132 0.99776134 0.04208568
0.50013382 0.49753361 0.04452993
0.99374695 0.50526399 0.04025785
0.33550428 0.66627678 0.70958667
0.33484317 0.16514987 0.70962634
0.66130217 0.83242876 0.38265395
0.83401917 0.17109426 0.70379306
0.17180457 0.84026624 0.37165546
0.84076109 0.67808690 0.70938251
0.16287742 0.33585546 0.36831690
0.00821261 0.00353143 0.03208032
0.67528592 0.34523321 0.37044739
0.49634582 0.99028906 0.04088704
0.50100222 0.49703497 0.04159030
0.99369350 0.50319973 0.03931828
0.33931431 0.66769477 0.70870721
0.33600126 0.16484494 0.70831204
0.66427580 0.83450064 0.38279684
0.83528055 0.17380424 0.70579058
0.17229176 0.83393904 0.37748138
0.83715726 0.67470932 0.70975279
0.16487470 0.33088040 0.36945724
0.00131176 0.99977869 0.03993157
0.66907452 0.33718120 0.36718092
0.49551631 0.98864248 0.03968518
0.49996686 0.49825918 0.03994045
0.99674792 0.49387225 0.04553356
0.34368947 0.67258674 0.70669830
0.33704463 0.16902190 0.70621816
0.66890802 0.83495533 0.37844863
0.82652248 0.16615371 0.71017108
0.16607540 0.82653581 0.38263809
0.83449147 0.66826038 0.71181182
0.16944887 0.32746422 0.37554214
0.99637609 0.99687815 0.04820452
0.66558388 0.33121678 0.36589584
0.49658718 0.99428160 0.04111749
0.49698820 0.49622432 0.04123913
0.00094592 0.49014460 0.05086714
0.34101526 0.67749565 0.70307519
0.33556752 0.17095500 0.70258177
0.66718990 0.83399632 0.37330631
0.82045774 0.15950209 0.71471102
0.16256582 0.83130688 0.37810324
0.82865827 0.66242212 0.71361388
0.16984688 0.32871576 0.38069111
0.00326676 0.00268259 0.04764710
0.66677737 0.33405479 0.36992464
0.49703614 0.00178847 0.04390920
0.49325086 0.49466533 0.03992867
0.00352267 0.49636295 0.04585554
0.33974537 0.68042331 0.70253721
0.33412674 0.16619939 0.70142617
0.66522773 0.83380026 0.37221438
0.82738385 0.16566959 0.71515922
0.16178660 0.84195290 0.36927090
0.82393579 0.65854418 0.71296622
0.16395154 0.32847866 0.38055243
0.01601320 0.01219971 0.04166246
0.67303814 0.34043252 0.37327917
0.49464206 0.00292358 0.04708363
0.49313555 0.49846243 0.03625864
0.00116617 0.50007182 0.03360771
0.33910131 0.67741409 0.70745822
0.33771197 0.15944563 0.70306995
0.66878680 0.83657225 0.37323557
0.83649419 0.17668522 0.70825732
0.15664072 0.83924491 0.36842772
0.82357136 0.65454651 0.71261892
0.16645973 0.32944517 0.37798145
0.01768362 0.01479699 0.03952266
0.67689715 0.33683009 0.37544718
0.49658682 0.99901909 0.04565209
0.49820262 0.50594298 0.03720103
0.00035667 0.49289159 0.02950202
0.33698244 0.67199825 0.71104504
0.33784113 0.15924628 0.70537683
0.67891106 0.84326610 0.37228826
0.83840428 0.17952564 0.70342513
0.14803156 0.82583322 0.37567493
0.83032174 0.65634398 0.71596485
0.17374164 0.32768150 0.37560826
0.00550225 0.00793548 0.04554278
0.66893948 0.32774879 0.37262665
0.50340562 0.99988653 0.04130208
0.50025307 0.50714283 0.04106749
0.00640916 0.48631684 0.03242927
0.33900324 0.67228927 0.70972792
0.33569609 0.16867547 0.70497398
0.68163117 0.84502512 0.36713039
0.83063732 0.16925478 0.70688789
0.14961660 0.82122445 0.37893769
0.83869683 0.66327327 0.71640987
0.17241199 0.32815104 0.38156056
0.99682897 0.99515322 0.05008617
0.66330267 0.33076336 0.36847966
0.50500029 0.00238271 0.04175339
0.49638116 0.50007992 0.04548270
0.01676228 0.50113777 0.03210520
0.33833423 0.67665253 0.70668540
0.33337473 0.17377829 0.70288132
0.67433157 0.84200191 0.36237506
0.82163875 0.15372951 0.71299092
0.15990301 0.82959089 0.37148316
0.83914120 0.66879786 0.71129128
0.16634396 0.33008785 0.39134776
0.99786899 0.98920281 0.04278894
0.66894291 0.34459928 0.37045588
0.50120127 0.00377643 0.04503009
0.49326166 0.49564267 0.04819006
0.02126398 0.52206676 0.03047546
0.33157758 0.67705768 0.70914601
0.32909653 0.16525271 0.70511090
0.66553740 0.83615353 0.36267308
0.81942861 0.14632828 0.71138443
0.16956781 0.84027263 0.36360294
0.83433838 0.66937348 0.70558777
0.16376231 0.32833902 0.39108540
0.99802290 0.99145231 0.02932392
0.67534173 0.35179662 0.37612632
0.49947192 0.00601908 0.04853364
0.49643429 0.49944533 0.04766331
0.01746174 0.52266618 0.03463437
0.32571271 0.66734562 0.71356087
0.33321491 0.16124199 0.70621105
0.66266320 0.83036155 0.36599542
0.82456418 0.15054353 0.70272305
0.16774073 0.82841860 0.36976183
0.83287957 0.66435747 0.70778106
0.16693705 0.33609813 0.38193592
0.98336423 0.99128523 0.02687900
0.66986720 0.34099485 0.37978521
0.50400664 0.01052381 0.05188428
0.50097285 0.50467736 0.04678393
0.01144064 0.50866684 0.04169955
0.32314113 0.65516943 0.71140451
0.33975618 0.17264209 0.70504850
0.67063600 0.82838446 0.36592504
0.82902989 0.15109232 0.70182048
0.15916856 0.81242425 0.37805000
0.82788281 0.66189658 0.72085316
0.17377779 0.34611170 0.37260466
0.97523540 0.99444811 0.03465535
0.65449201 0.32053539 0.37409998
0.50820408 0.01565723 0.05606103
0.49476298 0.49618621 0.04825814
0.00346331 0.49821780 0.04344788
0.32856484 0.65472863 0.70888056
0.33457530 0.17786364 0.70440825
0.67671040 0.82979355 0.36313089
0.83036288 0.14734817 0.70487725
0.15293969 0.81071548 0.38555229
0.82888433 0.66203113 0.72860615
0.17676698 0.35689499 0.37351119
0.99024610 0.00020883 0.04270625
0.65685896 0.31616124 0.37321062
0.50329666 0.01237677 0.05842749
0.48807401 0.48689394 0.04762714
0.00084610 0.50522414 0.04017389
0.33430682 0.67097346 0.70320174
0.32620399 0.16979218 0.70489269
0.67397741 0.83047622 0.36487590
0.83000365 0.14878795 0.70852015
0.15733533 0.82064754 0.38368439
0.83479802 0.66398935 0.72664151
0.17558590 0.36157725 0.37813533
0.01563167 0.00948351 0.04091020
0.66912432 0.33039789 0.37901859
0.49952450 0.00427195 0.05266454
0.49133828 0.48978388 0.04069535
0.99646341 0.51435977 0.03283104
0.33418922 0.67487904 0.70483833
0.33184264 0.15904897 0.70384487
0.67312358 0.83641900 0.37343820
0.82646542 0.15221818 0.70735403
0.16912079 0.83248389 0.37547498
0.84251853 0.66904770 0.71877614
0.17043742 0.35091706 0.37512989
0.02292609 0.01825968 0.03478084
0.67064222 0.34036225 0.37897188
0.49936419 0.00299572 0.04493323
0.49771187 0.49553042 0.03528021
0.99276932 0.50957674 0.02947567
0.33043177 0.66083758 0.71154118
0.34633589 0.16113608 0.69743840
0.67508775 0.84420845 0.38250563
0.82158672 0.15267250 0.70334443
0.17707972 0.83503684 0.37228345
0.84729937 0.67706829 0.70474341
0.16811193 0.34435481 0.36835577
0.00167132 0.00968185 0.03331137
0.67026199 0.34174802 0.37464135
0.49995160 0.00000015 0.04206500
0.49888456 0.49657102 0.03672042
0.00195155 0.50438043 0.03896909
0.33555576 0.65766088 0.70797749
0.35419606 0.17551680 0.69427203
0.67420319 0.84277353 0.38274728
0.82200310 0.15317543 0.71131513
0.17689356 0.82819340 0.37404620
0.84762863 0.68513110 0.69348511
0.16493614 0.33863459 0.36514743
0.98497469 0.99549031 0.04509431
0.66807630 0.33871475 0.37242435
0.50051570 0.99831268 0.04302425
0.49415338 0.48777287 0.04053700
0.00625382 0.49852017 0.04770840
0.34032186 0.66050865 0.70556368
0.35119497 0.18017799 0.69849291
0.66670017 0.83508628 0.38062863
0.82368035 0.15699445 0.71932298
0.17167334 0.82232937 0.37612962
0.84991468 0.68879832 0.69428356
0.15934734 0.33031226 0.37073702
0.99111216 0.99615863 0.05338830
0.66890891 0.33622702 0.37796825
0.49727614 0.99823013 0.04186873
0.49347022 0.48468753 0.03661608
0.99932249 0.49642621 0.04655723
0.33164560 0.66551764 0.70855167
0.34398383 0.17831988 0.70811640
0.66331397 0.83168364 0.38015767
0.82467138 0.16123162 0.71852232
0.16369794 0.82048095 0.37451471
0.84245623 0.68026975 0.70277787
0.16258225 0.33481980 0.37296827
0.00097172 0.00702166 0.04981986
0.67144654 0.33716158 0.38293179
0.49401020 0.99519386 0.03783495
0.49824719 0.49386448 0.02896371
0.99233991 0.49955127 0.04135568
0.32401165 0.66694283 0.71276412
0.34071315 0.17834101 0.71627156
0.67034712 0.84018621 0.38048474
0.82726955 0.16255999 0.71282888
0.16512316 0.82983511 0.37109634
0.82673585 0.66798621 0.71074322
0.16742749 0.33745304 0.37004669
0.99736633 0.00846050 0.04465253
0.67149559 0.33528183 0.37697607
0.49928654 0.99886816 0.03301725
0.49802198 0.49483688 0.03193116
0.99537698 0.50254132 0.04033093
0.32866189 0.66166080 0.71391729
0.33666069 0.17284521 0.71368621
0.67550686 0.84594164 0.38186210
0.83278500 0.16542235 0.70719600
0.17218046 0.83582708 0.37416780
0.82403006 0.66843476 0.70752750
0.16723659 0.33381492 0.36932066
0.98731288 0.99854506 0.04481143
0.66656313 0.32922283 0.37037915
0.50492783 0.00087483 0.02930817
0.49903582 0.49737345 0.04309002
0.00421874 0.50184316 0.04403172
0.33517178 0.65934067 0.71077277
0.33325793 0.16982893 0.71062550
0.67525094 0.84233506 0.37867937
0.84529889 0.17578625 0.70631136
0.17129636 0.83343955 0.37838283
0.83247947 0.67333961 0.69969100
0.16564144 0.33012635 0.37332242
0.98714846 0.99168263 0.05226216
0.65936445 0.32500344 0.37253923
0.50568749 0.00045580 0.02949814
0.50274738 0.50019984 0.04726844
0.00334498 0.49680867 0.04830203
0.33578664 0.66145761 0.70654503
0.33043436 0.16721584 0.71558184
0.67208144 0.83686862 0.37351061
0.85187422 0.18309355 0.70893483
0.16531719 0.83574006 0.37651020
0.83623872 0.66838557 0.70234434
0.16518358 0.32743523 0.37763376
0.99890092 0.99456563 0.05483492
0.65668582 0.32395700 0.37972228
0.50037935 0.99538195 0.03115343
0.50459201 0.49959901 0.03877580
0.99691211 0.49672232 0.04303788
0.33354190 0.66897727 0.70740704
0.32534033 0.16194769 0.71702895
0.66597228 0.83421296 0.37007950
0.84756666 0.18189097 0.70910598
0.16188899 0.83577206 0.37191696
0.83211907 0.66109246 0.70609799
0.16751667 0.33065150 0.37670126
0.00496178 0.99931479 0.04710099
0.66428974 0.32849973 0.38091596
0.49726963 0.99033371 0.03479598
0.50632905 0.50548419 0.03346588
0.99839674 0.50602627 0.04076619
0.33008621 0.67360761 0.70950499
0.32430162 0.16139350 0.71192265
0.66562962 0.83465800 0.37234189
0.84188536 0.17584771 0.70768419
0.16832493 0.83971463 0.37001329
0.82636252 0.65782471 0.70229912
0.17266457 0.33251096 0.37004398
0.00174251 0.00066754 0.03784306
0.66985289 0.33224411 0.37622939
0.50180170 0.99624821 0.03870639
0.50615239 0.51217991 0.03909903
0.00005468 0.50487945 0.04581546
0.32916352 0.67039858 0.70977180
0.32717698 0.16228741 0.70614957
0.66540500 0.83315059 0.37628614
0.84001404 0.17263561 0.70658842
0.17716689 0.84372849 0.37354291
0.83068059 0.65852809 0.69787733
0.17336757 0.33208548 0.36668064
0.99489980 0.99344101 0.03511656
0.66669058 0.32895996 0.37529851
0.50425328 0.00321145 0.03993539
0.50558479 0.51160508 0.04737988
0.00140504 0.49897090 0.04954160
0.33124281 0.66779993 0.70841521
0.33122667 0.16569052 0.70541751
0.65814018 0.82819977 0.37767637
0.84101559 0.17782157 0.70613044
0.17863893 0.83905320 0.37801008
0.83618665 0.65751758 0.69968805
0.16738477 0.33124130 0.37059579
0.99090507 0.98658950 0.04136216
0.66539774 0.33040122 0.37678379
0.50186399 0.00386970 0.04137549
0.50457042 0.50422246 0.04706407
0.00200147 0.49793541 0.04820685
0.33078383 0.66823324 0.70649225
0.33154400 0.17040696 0.71136136
0.65271362 0.82637800 0.37897981
0.84189050 0.17752620 0.70704889
0.17166981 0.83536880 0.37721925
0.83395518 0.65634908 0.70825508
0.16398892 0.33094072 0.37347741
0.99662675 0.99463333 0.04153608
0.66543390 0.33581541 0.37741793
0.50029834 0.00162200 0.04264189
0.50240743 0.49709352 0.03871499
0.99831742 0.49862045 0.04152322
0.32939297 0.66924383 0.70781946
0.32869750 0.16648517 0.71455762
0.65401463 0.82978368 0.37992369
0.83715413 0.16608629 0.70546996
0.16385743 0.83590369 0.37515273
0.83034976 0.65994071 0.71275281
0.16774822 0.33586284 0.37271862
0.00472907 0.00491083 0.03381290
0.66571208 0.33806062 0.37779321
0.49964685 0.99570689 0.04470427
0.50588990 0.50120492 0.03723597
0.99535420 0.49996290 0.04009644
0.33203056 0.66979050 0.70740474
0.32508328 0.16104362 0.70889172
0.66190062 0.83350590 0.38027120
0.83150537 0.15819803 0.70461951
0.16486118 0.83790512 0.37449987
0.82953957 0.66667038 0.70720907
0.17179224 0.33769953 0.37206117
0.00562128 0.00767654 0.03061038
0.66658372 0.33523474 0.37510093
0.50438053 0.00204853 0.04425149
0.51073871 0.50779267 0.04440301
0.99442671 0.49745975 0.04540266
0.33524823 0.66298402 0.70446828
0.32301731 0.15971679 0.70232745
0.66980394 0.83447355 0.38057469
0.82982695 0.15958101 0.70745795
0.17193851 0.83690129 0.37307973
0.83206765 0.67112322 0.70265087
0.16900410 0.33249278 0.37585623
0.00498403 0.00517930 0.03523946
0.66760641 0.33150165 0.37223390
0.50638420 0.00909827 0.04162240
0.50989961 0.50943882 0.04874968
0.99693957 0.49707205 0.04837268
0.33828697 0.65957970 0.70437652
0.32955374 0.16250562 0.70431809
0.66931288 0.83071935 0.37754262
0.83168801 0.16556437 0.71139771
0.16940376 0.83192852 0.37066409
0.83787064 0.67157018 0.70614160
0.16171544 0.32965552 0.38172408
0.00595320 0.00356236 0.04307499
0.67050286 0.33483462 0.37329643
0.50137024 0.00283663 0.04091227
0.50368884 0.50457517 0.04387594
0.99716946 0.50050626 0.04647888
0.34277899 0.66710898 0.70560161
0.33921397 0.16787074 0.71041331
0.66610684 0.82792864 0.37556487
0.83273482 0.16830193 0.71391782
0.16099569 0.83159618 0.37090099
0.84047818 0.67413438 0.71254756
0.15818668 0.33013434 0.38247789
0.00633271 0.00754108 0.04441225
0.67326157 0.34007806 0.37331207
0.49419090 0.99270789 0.04269037
0.49580034 0.49752025 0.03497562
0.99537469 0.50105656 0.04080178
0.34539229 0.67160985 0.70679932
0.34212715 0.16635005 0.70966948
0.66626358 0.83108787 0.37434572
0.82647232 0.16377329 0.71176248
0.15987682 0.83429854 0.37345633
0.83832809 0.67761473 0.71417692
0.16177152 0.33429165 0.37565932
0.00167783 0.00750943 0.04102722
0.67590517 0.34032985 0.36958655
0.48982159 0.98712162 0.04371252
0.49552438 0.50239287 0.03452180
0.99789520 0.50149672 0.03879633
0.34133394 0.67037493 0.70842414
0.34432466 0.16624100 0.70417746
0.67378076 0.83544885 0.37188196
0.81992409 0.16025851 0.70523340
0.16476633 0.83426207 0.37795171
0.83181859 0.67058558 0.70962112
0.16513057 0.33372071 0.36940560
0.99823887 0.00242032 0.04164848
0.67520835 0.33759571 0.36756624
0.49289031 0.99257378 0.04205161
0.49699857 0.50764334 0.04189561
0.99947413 0.49744506 0.03925478
0.33407371 0.66458080 0.70898650
0.34513120 0.17160388 0.70393491
0.67826125 0.83476471 0.37140512
0.82331410 0.16326653 0.70364274
0.16917443 0.83156580 0.38089782
0.83034568 0.66490371 0.70957271
0.16152841 0.32237919 0.37287363
0.00112019 0.00147415 0.04652621
0.66985891 0.33739027 0.36915792
0.49873681 0.00289992 0.03821101
0.49346402 0.50102947 0.04364686
0.00611659 0.49550976 0.03736785
0.33240972 0.66201368 0.71001987
0.34233050 0.17463926 0.70962250
0.67090848 0.83125708 0.37167121
0.82785690 0.17011465 0.70894925
0.16757171 0.82795360 0.37863169
0.83730546 0.66701841 0.71531197
0.15975183 0.32036866 0.38142354
0.00630532 0.00254351 0.04787695
0.66505953 0.33984292 0.37233406
0.50082905 0.00517084 0.03873704
0.48597075 0.48869175 0.03949882
0.01446861 0.50475445 0.03471609
0.33433496 0.67199303 0.70900801
0.33834067 0.17437644 0.71244349
0.66481567 0.83305838 0.36787099
0.83456513 0.17228997 0.71274091
0.15708685 0.82877222 0.37417246
0.83889901 0.67126156 0.71527452
0.16471396 0.33475181 0.38615930
0.00853865 0.00658128 0.04160969
0.66060670 0.33596286 0.37558798
0.50184757 0.00085761 0.04618735
0.48259874 0.48244196 0.03702775
0.00775751 0.50487525 0.03157698
0.33328763 0.67608302 0.70695436
0.33654582 0.16739632 0.70397136
0.67031418 0.83999790 0.36137297
0.83484944 0.16482311 0.70970664
0.15492344 0.83584149 0.37190726
0.83307588 0.67600284 0.71044267
0.17124536 0.34698025 0.38241559
0.00408916 0.00640228 0.03725404
0.65742351 0.32501910 0.37603475
0.50074589 0.99145736 0.05395200
0.48810777 0.48820010 0.04470287
0.00118990 0.49998371 0.03470386
0.33200301 0.66866336 0.70726131
0.33583706 0.16129564 0.69392365
0.67951373 0.84143734 0.36228778
0.82676369 0.16220211 0.70635871
0.16270384 0.83563809 0.37702122
0.82565372 0.67057072 0.71042597
0.17151154 0.34148029 0.37978913
0.99818824 0.99898460 0.03881887
0.66638971 0.32305032 0.37584827
0.50336850 0.99689960 0.05475788
0.49809702 0.49510560 0.05259191
0.00310851 0.50020550 0.03932143
0.33056595 0.66100524 0.70799252
0.33031360 0.16591837 0.69452901
0.68127954 0.83732725 0.37008247
0.82695302 0.16738369 0.70622478
0.16951203 0.82803408 0.38101385
0.82559518 0.66487107 0.71556923
0.16846364 0.32987517 0.38238276
0.99750678 0.99367484 0.04097335
0.67722353 0.33237341 0.37507032
0.51031279 0.01366492 0.05307788
0.49567763 0.49198218 0.04850454
0.00414579 0.49955034 0.03699098
0.33243241 0.66617386 0.70642096
0.33507386 0.17035545 0.70325563
0.66357715 0.82851003 0.37311968
0.83412578 0.17061340 0.70930720
0.17263100 0.81979177 0.37444168
0.83740705 0.66908489 0.72199896
0.16299564 0.33659758 0.38338567
0.99747777 0.98977538 0.03983173
0.67384140 0.33423193 0.37781354
0.50992835 0.01830958 0.05147687
0.49078691 0.49042376 0.04171514
0.00393482 0.50193534 0.02890144
0.33571453 0.68179925 0.70468156
0.34412196 0.17302345 0.70836288
0.65337353 0.82622434 0.37036846
0.84063811 0.16916128 0.71039053
0.16757526 0.81930891 0.37014783
0.84546071 0.67134591 0.71897135
0.15792694 0.35070201 0.37842141
0.99043230 0.98855073 0.04017937
0.66685094 0.33375522 0.38003160
0.50480442 0.00695002 0.05218475
0.49699125 0.49663763 0.04100585
0.00296871 0.50403408 0.02184474
0.33633313 0.68645205 0.70505059
0.34361577 0.17510857 0.70314879
0.66542165 0.83526170 0.36971584
0.83811459 0.15858938 0.70712650
0.16390483 0.83378382 0.37624118
0.83490989 0.66570904 0.70701967
0.16652104 0.35493201 0.36962185
0.98381704 0.99051205 0.04137809
0.66291980 0.33200597 0.37855776
0.50058894 0.99689139 0.05078287
0.50665032 0.50483280 0.04826666
0.00374277 0.50092920 0.02623920
0.33761949 0.67647866 0.70633504
0.33313970 0.17004863 0.70082528
0.67572768 0.83939876 0.37236597
0.83146381 0.15167785 0.70333915
0.16733778 0.84190467 0.38142165
0.82286574 0.65916420 0.70191346
0.17921790 0.34967851 0.36514512
0.98934297 0.99404510 0.03997647
0.66836983 0.33578762 0.37672729
0.49808756 0.00167307 0.03909570
0.51011744 0.50349040 0.05169323
0.00569366 0.50271559 0.04224476
0.33185178 0.66465475 0.70775141
0.32068355 0.16582954 0.70601225
0.67549985 0.83415201 0.37588952
0.83519235 0.15496796 0.70386580
0.16888006 0.83597431 0.37755715
0.82608020 0.66515999 0.70697801
0.17760015 0.34054524 0.36912599
0.00189042 0.00429666 0.03990305
0.66998990 0.34327526 0.37507630
0.49311108 0.01028477 0.02698148
0.50086405 0.48641357 0.04116812
0.00369454 0.50434987 0.05416697
0.32251337 0.65837176 0.71036458
0.31760532 0.15832673 0.71251378
0.66968938 0.83360511 0.37391275
0.84131618 0.15743892 0.70837261
0.16888634 0.82427092 0.37008495
0.83587718 0.67577742 0.70935103
0.16440966 0.33338226 0.37164005
0.01071952 0.01308177 0.04320819
0.66102038 0.34106043 0.37606021
0.48178157 0.00213870 0.02492718
0.49801463 0.48178648 0.03155548
0.99868307 0.50410839 0.05475706
0.31885106 0.66565701 0.71168220
0.32659692 0.15234832 0.71889646
0.66959422 0.83954014 0.37181643
0.84331962 0.15766646 0.71286377
0.16083920 0.81987703 0.37348761
0.84238023 0.67966796 0.70650558
0.15783177 0.33835618 0.36586142
0.00716322 0.00912373 0.04503587
0.65550259 0.33418879 0.37609906
0.48608797 0.99441444 0.03593719
0.51138286 0.49675678 0.03107313
0.99460277 0.50140379 0.04888296
0.32477839 0.66888440 0.71195184
0.33745659 0.15477807 0.71786073
0.67787516 0.84423715 0.38092174
0.84170538 0.15585932 0.70655415
0.15575656 0.83221553 0.38307493
0.83873741 0.67594992 0.70095535
0.16581969 0.34466730 0.35817311
0.00256245 0.00157632 0.05007794
0.65626186 0.32796088 0.37464656
0.50467905 0.00220176 0.04572985
0.51459516 0.50845951 0.03746616
0.99273656 0.49540450 0.04671117
0.33961942 0.65945240 0.71158622
0.33715111 0.15721997 0.71285470
0.67115993 0.83694635 0.38976742
0.83466679 0.15930899 0.69938972
0.17568378 0.83851279 0.37558971
0.83587775 0.67029824 0.70504398
0.17430277 0.34684799 0.35635855
0.00294871 0.00007009 0.05002783
0.66683644 0.32976361 0.37674655
0.50419718 0.01188550 0.03982486
0.50532154 0.51087201 0.03956933
0.99563296 0.49658775 0.04758406
0.34197318 0.65268315 0.71318527
0.33036652 0.16051201 0.71075410
0.65877244 0.82699766 0.38782050
0.83807842 0.17054814 0.70332066
0.18552916 0.83491030 0.36103872
0.83639185 0.66560240 0.71249978
0.16716265 0.33509530 0.36386094
0.00535365 0.00358901 0.04792219
0.67838947 0.34229172 0.37761567
0.49224092 0.01197615 0.03223898
0.49497403 0.50413095 0.03673697
0.99782890 0.49907140 0.04649852
0.32824498 0.65208758 0.71531230
0.33386653 0.17043922 0.71264634
0.65236065 0.82618603 0.38025307
0.83681504 0.17291001 0.71063614
0.18041354 0.83696459 0.36155157
0.83584546 0.66556735 0.70935510
0.15562457 0.32019633 0.37105961
0.00285370 0.00494448 0.04948528
0.67336318 0.34317852 0.37522583
0.48959961 0.00092058 0.03684997
0.49893397 0.50437179 0.03375672
0.99774509 0.49676781 0.04409753
0.32050625 0.65476396 0.71307803
0.34274593 0.17719444 0.71508359
0.65848424 0.83202244 0.37392045
0.82825408 0.17211711 0.71516485
0.17085152 0.84407587 0.37138764
0.83246207 0.66377320 0.69661569
0.15486044 0.31714437 0.37002230
0.99708487 0.00203335 0.05056670
0.66083991 0.33170764 0.37490868
0.49567710 0.99031882 0.03924910
0.51323575 0.51355568 0.03593747
0.99785415 0.49632383 0.04398329
0.32976706 0.65743149 0.70896867
0.33931764 0.17280377 0.71480793
0.66828933 0.83538411 0.37348395
0.83104901 0.17281862 0.71076320
0.16955727 0.85120217 0.37573299
0.82571935 0.65815906 0.68718130
0.16708203 0.32489448 0.36705490
0.99659620 0.00450196 0.04796736
0.65430153 0.32355503 0.37928365
0.50426547 0.99531898 0.03693895
0.51407316 0.51166982 0.04537175
0.99795008 0.49773309 0.04801983
0.33995726 0.65619481 0.70797215
0.32668768 0.16009447 0.71319390
0.66629618 0.83424051 0.37619400
0.84248047 0.17529048 0.70387675
0.17942904 0.85319407 0.37495097
0.83265165 0.65631656 0.69769640
0.17445974 0.33264359 0.37105395
0.99882485 0.01043528 0.04214543
0.65592342 0.32202528 0.38345242
0.50557752 0.00295119 0.03148990
0.50334381 0.50308326 0.04517185
0.99883004 0.50216863 0.04988128
0.33860705 0.65872195 0.70999901
0.32105567 0.15792153 0.71067944
0.65978120 0.82750158 0.37444399
0.84904151 0.18129376 0.70446218
0.18120494 0.84330193 0.37228222
0.84342075 0.66105496 0.71160526
0.16932428 0.32691782 0.37930769
0.99709826 0.00806759 0.03942745
0.66456963 0.33038310 0.37803372
0.50077294 0.00417804 0.03223260
0.49866825 0.50053991 0.04035497
0.99901500 0.50843094 0.04880694
0.32569684 0.66099094 0.70948797
0.32724072 0.16392993 0.70857930
0.65830158 0.82458800 0.37278983
0.84236027 0.18198947 0.70880004
0.17362688 0.83306769 0.37377798
0.84235228 0.67070059 0.71046984
0.15986261 0.31649058 0.37972784
0.99103576 0.99787113 0.03981531
0.66981822 0.33478483 0.37088852
0.50244728 0.00084349 0.04083945
0.50138283 0.50360912 0.03936385
0.99675974 0.50753568 0.04686346
0.32285811 0.66593585 0.70601806
0.33634287 0.16568058 0.71065936
0.66049477 0.82711653 0.37504368
0.83060139 0.17562081 0.70959361
0.16747291 0.83370858 0.37659613
0.83793362 0.67654049 0.70414033
0.16351461 0.32597567 0.37262696
0.99212458 0.98773531 0.03783244
0.66819811 0.33013721 0.37053806
0.50925917 0.99697553 0.04675942
0.50705435 0.50663623 0.04356481
0.99565281 0.50120020 0.04288889
0.33062557 0.67184155 0.70464451
0.33599481 0.16444582 0.71102043
0.66419831 0.83031853 0.37915950
0.82951307 0.17213727 0.70477496
0.16443822 0.83762901 0.37530258
0.83800702 0.67322554 0.70322574
0.17433697 0.34518224 0.37046746
0.99942035 0.98996523 0.03632089
0.66661752 0.33044877 0.37163422
0.51068476 0.99650286 0.04680338
0.50785019 0.50506941 0.04762184
0.99803022 0.49595647 0.04126958
0.33623818 0.67044726 0.70593155
0.32850176 0.16272401 0.70905980
0.66448450 0.83360008 0.37899918
0.83447449 0.17336140 0.70281985
0.16696814 0.83852294 0.37450357
0.83915976 0.66741061 0.71094450
0.17516667 0.35001881 0.37544912
0.00440906 0.00170861 0.03533658
0.66699743 0.33198812 0.37208816
0.50646827 0.00098209 0.04437231
0.50147663 0.49981650 0.04507863
0.00234297 0.49844057 0.04206281
0.33481313 0.66889342 0.70774029
0.32429858 0.16503696 0.70648303
0.66377721 0.83037854 0.37351256
0.83399648 0.17309736 0.70831920
0.16619261 0.83273049 0.37356830
0.83537620 0.66522794 0.71645672
0.16765940 0.33994958 0.37892384
0.00536543 0.00403796 0.03535073
0.67049159 0.33589142 0.37034574
0.50125444 0.00400378 0.04161809
0.49498515 0.49766649 0.04154388
0.00432236 0.50406981 0.04518412
0.33183393 0.66886215 0.70616097
0.32779385 0.16973545 0.70585510
0.66745632 0.82744700 0.37336383
0.82724654 0.16757915 0.71330712
0.16206313 0.82775968 0.37597504
0.82766757 0.66776899 0.71032644
0.16175613 0.32671839 0.37592857
0.00393998 0.00086267 0.03934954
0.67205939 0.33669168 0.36809330
0.50191581 0.00159943 0.04194069
0.49312680 0.50046055 0.04017662
0.00344274 0.49952392 0.04652380
0.33515843 0.66869799 0.70264504
0.33365110 0.16790499 0.71099710
0.67347647 0.83075418 0.37816145
0.82441429 0.16178165 0.71177074
0.16092787 0.82955218 0.37905701
0.82569977 0.67091726 0.70595729
0.16670588 0.32525471 0.37160270
0.00404382 0.00058133 0.04085160
0.66767681 0.33020407 0.37070582
0.50355527 0.99796637 0.04206459
0.49520119 0.50293922 0.04009409
0.00087384 0.49367471 0.04235997
0.34196532 0.67156734 0.70449432
0.33580382 0.16597849 0.71429796
0.67586013 0.83774121 0.38009117
0.83500599 0.16231170 0.70720196
0.16066994 0.83007928 0.37833733
0.82936582 0.66738617 0.70935088
0.17516055 0.33779081 0.37428433
0.00627777 0.00596632 0.03966437
0.66591846 0.33162988 0.37626626
0.50050972 0.99786111 0.04341204
0.49640721 0.50087184 0.04015030
0.99890889 0.49588844 0.03762390
0.34230285 0.67026488 0.70664584
0.33452579 0.16623255 0.71048998
0.67384310 0.84516126 0.37726564
0.84160927 0.16253292 0.70711709
0.15942458 0.82777668 0.37630424
0.83396211 0.66248104 0.71727548
0.17102245 0.34448265 0.37963174
0.00737739 0.01034987 0.04004809
0.67220828 0.33928105 0.37532571
0.49467395 0.99799353 0.04319283
0.49392922 0.49585786 0.03841389
0.00071930 0.50004079 0.03560173
0.33722452 0.66776654 0.70639744
0.33733789 0.16760069 0.70501681
0.66937855 0.84128669 0.37301001
0.83136458 0.16094516 0.71233838
0.15713004 0.82293455 0.37273553
0.83715998 0.66458540 0.71822858
0.16064563 0.33605287 0.38214158
0.00518269 0.00362012 0.04149763
0.67850500 0.34523137 0.37096994
0.49159641 0.99694684 0.04148580
0.49124823 0.49498155 0.03861599
0.00465281 0.50308350 0.03658227
0.33376016 0.66844211 0.70560649
0.34274061 0.17077492 0.70199846
0.66975253 0.83363615 0.36790463
0.81831107 0.15967592 0.71357461
0.15555607 0.82237359 0.36986121
0.83580483 0.67183608 0.70772981
0.16100893 0.32802924 0.38135155
0.00065098 0.99183152 0.04387027
0.67582881 0.34263926 0.37175530
0.49662420 0.99747881 0.04457088
0.49280333 0.49892633 0.04177664
0.00326631 0.50037911 0.03936589
0.33589752 0.67052087 0.70402913
0.34533018 0.17194015 0.70410172
0.67297153 0.83744972 0.36379466
0.81666100 0.16039272 0.70904080
0.16055880 0.83054400 0.37136848
0.83409950 0.67540398 0.70531069
0.16987651 0.33475988 0.38169507
0.00145428 0.99303694 0.04256741
0.66681476 0.33241280 0.37484484
0.50098227 0.99970393 0.04878409
0.49916360 0.50093204 0.04378993
0.99909525 0.49584395 0.03631922
0.33632973 0.67031971 0.70664847
0.34242590 0.17235138 0.70532772
0.67027365 0.84176285 0.36476128
0.82719079 0.16413800 0.70342044
0.16756952 0.83628900 0.37494665
0.83147051 0.66533085 0.71206233
0.17879100 0.34973740 0.38631727
0.00520418 0.00340498 0.04013705
0.66387895 0.33145614 0.37683055
0.49415629 0.99946704 0.04776543
0.50088769 0.49663162 0.04419497
0.00123536 0.49930700 0.03386726
0.33021736 0.66319148 0.71093456
0.33632399 0.16969585 0.70164423
0.66975778 0.84234803 0.36581803
0.83504812 0.16472850 0.70318217
0.16571779 0.83697973 0.37889384
0.83199022 0.65512317 0.71601794
0.17590986 0.34678609 0.38545250
0.00234465 0.00935103 0.04083535
0.66597057 0.33653012 0.37651524
0.49178397 0.00453372 0.04206559
0.49705606 0.49118377 0.04289741
0.00617294 0.50624847 0.03878347
0.32675749 0.65730990 0.71221366
0.33444355 0.16631737 0.69757684
0.66962850 0.83403547 0.36646060
0.82890627 0.15991040 0.70672082
0.16631058 0.83946338 0.38213616
0.83728732 0.65874185 0.71305779
0.16494176 0.32923697 0.37632367
0.99571135 0.00435359 0.04341236
0.65962111 0.33449183 0.37538382
0.49687874 0.00657538 0.03633388
0.49434144 0.49215960 0.04168007
0.00830726 0.51126451 0.04264569
0.33221211 0.66076291 0.70945429
0.33602197 0.16723492 0.69910107
0.66826142 0.82602993 0.36957040
0.82328672 0.15762779 0.70699969
0.17584055 0.84044221 0.38184629
0.83998470 0.67094338 0.70534327
0.15560943 0.32007068 0.36896498
0.99070537 0.99782472 0.04508974
0.65273168 0.32765127 0.37629178
0.50286551 0.99991056 0.04143932
0.49749109 0.49640608 0.04345923
0.00487290 0.50779386 0.04124751
0.33776534 0.66536943 0.70624709
0.33452981 0.16686595 0.70839075
0.66772789 0.83032352 0.37602077
0.83234121 0.16160940 0.70617746
0.18501595 0.83723792 0.37787275
0.84134122 0.68079404 0.70464517
0.15595642 0.32613636 0.36747147
0.99193221 0.00163334 0.03964553
0.65616955 0.32464131 0.38095866
0.50532777 0.99678101 0.04566318
0.50588620 0.49644467 0.04538450
0.99761797 0.50071867 0.03471242
0.33480984 0.66633367 0.70715311
0.32919644 0.16447032 0.71458139
0.66292730 0.83463968 0.37939179
0.84546962 0.16690976 0.70889167
0.18411166 0.82847804 0.37207746
0.84067164 0.67695215 0.70915771
0.16839488 0.34499906 0.37225721
0.99750331 0.00941197 0.03311243
0.66533134 0.33053774 0.38608515
0.49751594 0.99656005 0.04158420
0.51389577 0.49634934 0.05008549
0.99900759 0.50412382 0.03127341
0.32451922 0.66697501 0.71044771
0.32548429 0.16340889 0.70884242
0.66283183 0.83913311 0.37639246
0.84113496 0.16323206 0.71309422
0.17316249 0.82008678 0.37011215
0.83724849 0.66927509 0.70778857
0.17575954 0.34725752 0.37552737
0.99320964 0.00706636 0.03847139
0.67453729 0.33937991 0.38445417
0.49933481 0.00254786 0.03435453
0.51798506 0.49768938 0.05013573
0.00353875 0.50769968 0.03719393
0.32028748 0.66963914 0.71329363
0.33004677 0.16155896 0.70204659
0.66031824 0.84095652 0.37366172
0.82592340 0.15957921 0.71758088
0.16986761 0.82055230 0.37369566
0.83598823 0.67517044 0.70038904
0.16331644 0.33461307 0.37200792
0.98369130 0.99668654 0.04696354
0.67759446 0.34173105 0.37773309
0.50963296 0.01273984 0.03272721
0.51517178 0.50217142 0.04181010
0.00489462 0.50720413 0.04324307
0.32721325 0.67263217 0.71351356
0.33578704 0.16665922 0.70667277
0.65087299 0.83063241 0.37771775
0.82665918 0.16667555 0.71905130
0.17583853 0.82939019 0.37653129
0.83198212 0.68132154 0.69367836
0.15335601 0.33199247 0.36561530
0.98589186 0.99223587 0.04820278
0.67092532 0.33508453 0.37449665
0.51610601 0.01924847 0.03691502
0.50491693 0.50553171 0.03544779
0.99925124 0.50287796 0.04341639
0.33403262 0.66604449 0.70689118
0.33332531 0.16808714 0.71987749
0.64720055 0.81812346 0.38718809
0.84316624 0.17740821 0.71288869
0.17701828 0.83470841 0.37532715
0.82698122 0.67033081 0.69492746
0.15621924 0.33747105 0.36780718
0.99598442 0.99914692 0.04594676
0.66044064 0.32745377 0.37680599
0.51303497 0.01741144 0.03793288
0.50709998 0.50042961 0.03563195
0.99107486 0.49826955 0.04097809
0.33381964 0.65691582 0.70248886
0.32486200 0.16402532 0.72436072
0.65354624 0.81785517 0.39403219
0.85700724 0.17727639 0.70203944
0.17075795 0.83282910 0.37071944
0.82286255 0.65406761 0.70492454
0.16847466 0.34191731 0.37362377
0.00341162 0.00720924 0.04657786
0.65735501 0.32890291 0.38065022
0.49944224 0.00211928 0.03396083
0.50964615 0.49528178 0.04034029
0.99985068 0.50384042 0.04196366
0.33244596 0.65748572 0.70844801
0.32539567 0.16743130 0.71563339
0.66917893 0.83237602 0.39058029
0.85169058 0.17056963 0.69904320
0.16625731 0.83436874 0.36667522
0.81908502 0.64943679 0.70613088
0.16402259 0.33360815 0.37041335
0.99800718 0.00457079 0.05036553
0.66089334 0.33230985 0.38224743
0.49096953 0.99019142 0.02489504
0.50330936 0.49666632 0.03974685
0.00986383 0.50919250 0.05152251
0.33661818 0.66525508 0.71458751
0.32787537 0.16371307 0.71239513
0.68153246 0.84710425 0.38236029
0.83709159 0.17052572 0.70608825
0.16736323 0.84190031 0.36712645
0.82083000 0.65491976 0.69695210
0.14752657 0.31865404 0.35942647
0.99586293 0.99807842 0.05471131
0.66278344 0.33133946 0.37805823
0.49703931 0.99052433 0.01856048
0.49825586 0.50210691 0.03403494
0.00874206 0.50539134 0.06149553
0.33953742 0.67033212 0.71224495
0.32842779 0.16045594 0.71931924
0.67544329 0.84425149 0.37722107
0.83511298 0.17493447 0.71085759
0.17628171 0.84444478 0.36833451
0.82705223 0.66376961 0.69233602
0.14833878 0.31803666 0.35335088
0.00300697 0.99573155 0.04831530
0.66168995 0.33756335 0.37127557
0.50192279 0.99044041 0.02274286
0.50522465 0.51037315 0.03138947
0.00989281 0.50154738 0.05859376
0.33753790 0.66990991 0.70602837
0.33121744 0.16887159 0.72329581
0.66693655 0.83667460 0.37763701
0.84487252 0.17456779 0.70564046
0.17942756 0.84065606 0.37023385
0.83396060 0.66982768 0.69745566
0.16556579 0.32598378 0.35869834
0.01404399 0.99991520 0.04090214
0.66127296 0.34018717 0.37176031
0.50506343 0.99473267 0.03640744
0.51071144 0.51294707 0.03190846
0.00858227 0.49687387 0.04952182
0.32837840 0.67146773 0.70737408
0.33457803 0.17683637 0.71781775
0.66988872 0.83974780 0.37613167
0.84847767 0.16552458 0.70102882
0.16800450 0.83678227 0.37567013
0.83505881 0.66879773 0.70797847
0.17746366 0.32728109 0.36625835
0.01616464 0.00272573 0.04251272
0.66507044 0.33637279 0.37608182
0.50543586 0.99808132 0.04466157
0.50752109 0.51038588 0.03544555
0.99699165 0.49241736 0.04560666
0.32357656 0.67515946 0.71523291
0.33741466 0.17734201 0.70492637
0.66992400 0.83873925 0.37319871
0.84036765 0.15924334 0.70452315
0.15991003 0.83659988 0.37992819
0.82987128 0.66215305 0.71348164
0.17537464 0.32702171 0.36829602
0.00320559 0.00286965 0.04467898
0.66745086 0.33164038 0.37594737
0.49991007 0.99044595 0.04417091
0.49994269 0.51026969 0.04003580
0.99011998 0.49087699 0.04729258
0.33090754 0.66994012 0.71756639
0.33519914 0.16915793 0.70137027
0.66601369 0.83448076 0.37066487
0.83441471 0.16687690 0.70969870
0.16707668 0.84431471 0.38080672
0.82530869 0.66089440 0.71109508
0.16683829 0.32606770 0.36897684
0.98869084 0.99945366 0.04063076
0.66191384 0.32624380 0.36927332
0.49909753 0.99676303 0.04396726
0.49587280 0.51030271 0.04313868
0.99290117 0.49079596 0.04734367
0.33546828 0.66237637 0.71315923
0.32740058 0.16234210 0.70964318
0.65943954 0.82691678 0.37287296
0.83648963 0.17638530 0.71009572
0.17854866 0.85015884 0.37698731
0.82999403 0.66889888 0.70638447
0.17010639 0.33130490 0.37597729
0.99272090 0.99506925 0.03205907
0.65603004 0.32805039 0.36671972
0.50398089 0.00747785 0.04558078
0.49905986 0.51216089 0.04603325
0.00403617 0.49730456 0.04536871
0.33195427 0.66200752 0.70594404
0.32653187 0.16220600 0.71337703
0.65760537 0.82460635 0.37787071
0.84124566 0.17876535 0.70533798
0.18042264 0.84692326 0.37334234
0.84009907 0.67049792 0.70516330
0.17893742 0.33633847 0.38419052
0.00694172 0.00083744 0.02865328
0.65562217 0.33115100 0.37258396
0.50588174 0.00454511 0.04674721
0.50302951 0.51075011 0.04819699
0.00919736 0.50180745 0.04419545
0.32525183 0.66269662 0.70277820
0.33421931 0.16837474 0.70868756
0.66478693 0.83167886 0.38093520
0.84101457 0.17518682 0.70334127
0.16931237 0.84029193 0.37560399
0.84467561 0.66166786 0.70804772
0.17792935 0.33271983 0.38453342
0.00845479 0.00608446 0.03569574
0.66337669 0.33179628 0.37468719
0.49986149 0.99454502 0.04325989
0.50378638 0.50358155 0.04693561
0.99999583 0.49743056 0.04260394
0.32535040 0.66453050 0.70292767
0.33763561 0.16987062 0.70260688
0.67028787 0.83458206 0.38016740
0.83490652 0.17048134 0.70766131
0.16054990 0.83259522 0.37703315
0.83890703 0.65691905 0.70961972
0.16763398 0.33314901 0.37898755
0.99683070 0.00088797 0.03919377
0.67442259 0.33506111 0.37154224
0.49173325 0.98694105 0.03862589
0.50142911 0.50154435 0.04559091
0.99232885 0.49445256 0.04327223
0.33183963 0.66746509 0.70035488
0.33508735 0.16330470 0.70383562
0.66776357 0.83215740 0.37790696
0.82486439 0.16735373 0.71274009
0.16605421 0.83219382 0.37565299
0.83624244 0.66429166 0.71117541
0.16048649 0.33427577 0.37535890
0.99343612 0.99888345 0.03650117
0.67382936 0.33597552 0.36583878
0.49046016 0.99100631 0.04011285
0.50034492 0.50091625 0.04323560
0.99494873 0.49762550 0.04433470
0.33777499 0.66928180 0.69714860
0.33613890 0.16154387 0.70999968
0.66337595 0.82955313 0.37686867
0.81807988 0.16454250 0.70994455
0.16967473 0.83012154 0.37438034
0.84148332 0.67307107 0.71096739
0.16288457 0.33171779 0.37922305
0.00142603 0.00454946 0.03354560
0.67264590 0.34100588 0.36620408
0.49469876 0.00171745 0.04744614
0.50214904 0.50051996 0.04042472
0.00170507 0.50310979 0.04013663
0.33885232 0.67255729 0.69837443
0.34116879 0.16848725 0.70971497
0.66292906 0.83114311 0.37574531
0.81760039 0.15921837 0.70354208
0.16231990 0.82428331 0.37403971
0.83944390 0.67077003 0.71172907
0.16956211 0.33084132 0.38372646
0.01049301 0.01168150 0.03663754
0.67571761 0.34639619 0.37374376
0.49735463 0.00585178 0.05114988
0.50131946 0.49949801 0.04064622
0.00803990 0.50540981 0.03507459
0.34034224 0.67548107 0.70238215
0.34222983 0.17262904 0.70327831
0.67066216 0.83753522 0.37355024
0.82176023 0.15499756 0.70320245
0.15348742 0.82359373 0.37665658
0.83130570 0.66548994 0.71485712
0.16716304 0.33015166 0.38339121
0.00850139 0.01314049 0.04285078
0.67887955 0.34035231 0.37630807
0.49766550 0.00389653 0.04734281
0.49704426 0.49531575 0.04300661
0.00591224 0.50044765 0.03452880
0.34365745 0.67536669 0.70636018
0.33782613 0.16820761 0.70044701
0.67625979 0.83837029 0.37055186
0.82531810 0.15574521 0.70740267
0.15284769 0.82753539 0.37852664
0.82727761 0.66779233 0.71643469
0.16214533 0.33389877 0.37927981
0.99634831 0.00681964 0.04418379
0.67661660 0.33146057 0.37319372
0.49531689 0.99912415 0.04218389
0.49162321 0.49519766 0.04372935
0.00218874 0.49888830 0.03819906
0.34753867 0.67231514 0.70793497
0.33230802 0.16079571 0.70412019
0.67253330 0.83533829 0.36896211
0.82648498 0.16201667 0.71093155
0.16421201 0.83455117 0.37385022
0.83005820 0.67472264 0.71530661
0.16307831 0.33707063 0.37564875
0.99422541 0.00229929 0.04124872
0.66719485 0.32881178 0.37201331
0.49672733 0.00119808 0.04406721
0.48562176 0.49504025 0.04102202
0.00708201 0.50595890 0.04242522
0.34641781 0.66970844 0.70776610
0.33044991 0.16052189 0.70778276
0.67017853 0.83432621 0.36864039
0.83129457 0.16817057 0.71064288
0.17137897 0.83808133 0.36934832
0.83575252 0.67467433 0.71325128
0.16292010 0.33113689 0.37765909
0.00888699 0.00352553 0.04080539
0.66257576 0.33242644 0.37483984
0.50184639 0.00492499 0.04837989
0.48599030 0.49368247 0.03763458
0.01387680 0.51317244 0.04251591
0.33794539 0.66686390 0.70913013
0.33568836 0.16852524 0.70664793
0.67108879 0.83501951 0.36945927
0.83762080 0.16669711 0.70704679
0.16693788 0.83397100 0.37250815
0.83633808 0.66489054 0.70943182
0.16169165 0.32618112 0.37915819
0.01674468 0.00264867 0.04131233
0.66685233 0.33710779 0.37887409
0.50198620 0.00049488 0.04924139
0.49681845 0.49841651 0.03910991
0.01303749 0.51220965 0.04012114
0.33322476 0.66612904 0.71362544
0.33987040 0.17365543 0.70379482
0.67407297 0.83862044 0.37127239
0.84040930 0.16223389 0.70781845
0.16046603 0.83085487 0.37861203
0.83081493 0.65882088 0.70775160
0.16011408 0.33047592 0.37335872
0.00589644 0.99878835 0.04182327
0.67348816 0.33517695 0.37723720
0.50072539 0.99606388 0.04455064
0.50241317 0.50227256 0.04110022
0.00134376 0.50111477 0.03941126
0.33174536 0.66594299 0.71615749
0.33667389 0.17105464 0.70293655
0.67298446 0.83720572 0.37180035
0.83906130 0.16381903 0.71112335
0.16150739 0.83045576 0.37874875
0.82775782 0.66226301 0.70750405
0.16392337 0.34027898 0.36992408
0.99185390 0.99346390 0.04235770
0.67348402 0.33209188 0.37192362
0.50157528 0.99625060 0.03915054
0.49745473 0.49988406 0.03982354
0.99210605 0.49378997 0.03984106
0.32925173 0.66593708 0.71183142
0.33563149 0.16819764 0.70507502
0.66351787 0.83072601 0.37110391
0.83433721 0.16896426 0.70970573
0.17009761 0.83297580 0.37346094
0.83077374 0.66672172 0.70729992
0.17257747 0.34215045 0.37452891
0.99382511 0.99702135 0.04328258
0.66723008 0.33401752 0.37243960
0.50345412 0.99774298 0.04088710
0.49630328 0.49679935 0.03974981
0.99374162 0.49785084 0.03665090
0.32847498 0.66515940 0.70591559
0.33644271 0.17004733 0.70689412
0.66058196 0.83184668 0.37149676
0.83596918 0.17042074 0.70298116
0.17113335 0.83194574 0.37317125
0.83489830 0.66596883 0.70545695
0.17489777 0.33458490 0.37937391
0.00595770 0.00586352 0.04522198
0.66240450 0.34040731 0.37993034
0.50635449 0.00498089 0.04467109
0.50292000 0.49508378 0.04465345
0.99869494 0.50203161 0.03220072
0.32596718 0.66636892 0.70782262
0.33272086 0.17279856 0.70380138
0.66202586 0.83452121 0.37462276
0.84063018 0.16600861 0.69889846
0.16367411 0.82694438 0.37975785
0.83246207 0.66405966 0.70311254
0.17193828 0.33642593 0.38005483
0.00656388 0.00297630 0.04569559
0.66217664 0.34110572 0.38538379
0.51095676 0.01211232 0.04365290
0.50902012 0.49581258 0.05121559
0.99908729 0.49712782 0.03311929
0.32427974 0.67019237 0.71245210
0.32841494 0.16810659 0.70116305
0.66083881 0.83408066 0.37751065
0.84324093 0.16240349 0.70297720
0.16619221 0.83178435 0.38211691
0.83239726 0.67073886 0.70637356
0.17223787 0.34687788 0.37418386
0.99065043 0.99000912 0.04189707
0.65938623 0.32930376 0.38091090
0.51424157 0.01017085 0.04062523
0.50562415 0.49766202 0.05142320
0.99327402 0.48527126 0.03944680
0.32860410 0.67183293 0.71213365
0.32307587 0.16083977 0.70463752
0.66257585 0.83409711 0.37698004
0.84447483 0.16850365 0.70804546
0.17650309 0.83935687 0.37793770
0.83986626 0.68183224 0.70812128
0.17893406 0.35253028 0.36793430
0.97961661 0.98390187 0.04065616
0.65885838 0.32431200 0.37354548
0.50623865 0.00179310 0.03841459
0.49985929 0.49944963 0.04583955
0.98900851 0.48453093 0.04470875
0.33103531 0.66761556 0.70773186
0.32203675 0.15895078 0.71181519
0.66479073 0.83407580 0.37706092
0.84214641 0.17818308 0.70914397
0.18514158 0.83690923 0.37351279
0.84346645 0.68286937 0.70264231
0.18076186 0.34467523 0.36820881
0.98829929 0.99077254 0.04415889
0.66170879 0.32907858 0.37624802
0.49226513 0.99168064 0.03563183
0.50111290 0.49983607 0.03843277
0.99490012 0.49911788 0.04432296
0.32775204 0.66638571 0.70705325
0.32545472 0.16329653 0.71585738
0.66552641 0.83617812 0.38049068
0.84015859 0.17809527 0.70823154
0.18205179 0.82846432 0.37175172
0.84240410 0.67499545 0.69800197
0.16684963 0.32480742 0.36913096
0.00758209 0.00152976 0.04917076
0.66732942 0.33387426 0.38143972
0.49300338 0.99024183 0.03382874
0.51322424 0.50549781 0.03426649
0.00074439 0.50416052 0.04581840
0.32526160 0.66440311 0.71162065
0.33088654 0.16683638 0.71607555
0.66404099 0.84077333 0.38574917
0.84146353 0.16858275 0.70633100
0.17257051 0.82497237 0.37524095
0.83906258 0.66966071 0.69694235
0.15410625 0.31555795 0.36520029
0.01159296 0.00146835 0.04748482
0.66808307 0.33113188 0.37914582
0.50047650 0.99714791 0.03217922
0.52641945 0.51970885 0.03737759
0.99679096 0.49397951 0.05294050
0.32858298 0.65973912 0.71443323
0.33604664 0.16953308 0.71676581
0.66076426 0.84129254 0.38807319
0.84010196 0.16173457 0.70945846
0.16980979 0.83266340 0.37472991
0.83211406 0.67042566 0.70029287
0.15429841 0.32794851 0.35580062
0.99640439 0.99589437 0.04258982
0.66523744 0.32356360 0.37310893
0.49885669 0.99822292 0.02536334
0.52881576 0.53004341 0.04042303
0.99115860 0.48762593 0.05815921
0.34101598 0.66128757 0.71103023
0.33537892 0.17231120 0.71914057
0.66678608 0.83663190 0.38202995
0.83624797 0.16903475 0.71213455
0.17006442 0.84279977 0.36665336
0.82872526 0.66934140 0.70316465
0.15675325 0.33374885 0.35112501
0.98933956 0.99943999 0.04473961
0.66387201 0.32556453 0.36910947
0.48690978 0.99348947 0.01861187
0.51545663 0.51312031 0.03150230
0.99484300 0.49700622 0.05870828
0.34626439 0.66618033 0.70436190
0.33236203 0.17047791 0.72080608
0.66624541 0.82902886 0.37879975
0.82704458 0.17752917 0.70962801
0.17235078 0.84492739 0.36316111
0.83268111 0.66559769 0.70278084
0.16192360 0.32849751 0.36097974
0.99648285 0.00744965 0.05058429
0.66707216 0.33683858 0.37517997
0.48475867 0.98926591 0.02517540
0.49509176 0.49081849 0.02354394
0.00403522 0.51376803 0.05558057
0.34298015 0.66968232 0.70475604
0.33178175 0.16704154 0.72107876
0.65885104 0.82349581 0.37939471
0.81886768 0.17233756 0.71297361
0.17472225 0.83809749 0.36739272
0.84064743 0.66333087 0.70040262
0.16800135 0.32236078 0.37543948
0.99449579 0.00251167 0.04878492
0.67459640 0.34682843 0.38395173
0.50154254 0.99944041 0.04033643
0.49311578 0.49352370 0.02319106
0.01007137 0.51995264 0.05178962
0.33991252 0.67244874 0.71304700
0.33002955 0.16537185 0.72077753
0.65998432 0.82261419 0.37853842
0.82883446 0.16279636 0.71588209
0.16962260 0.83356439 0.37465698
0.84483545 0.65938718 0.69956549
0.16918256 0.32380081 0.38019364
0.99431756 0.99089671 0.04406455
0.68715584 0.34793787 0.38436083
0.50824052 0.01311164 0.04729668
0.50502258 0.50715095 0.03044754
0.01481503 0.51914008 0.04895650
0.33043659 0.66690016 0.71478115
0.32906084 0.16267316 0.71903155
0.66697387 0.82722462 0.37719745
0.83367359 0.15638339 0.71066754
0.16571219 0.83845765 0.38052494
0.83844479 0.65177743 0.70333676
0.16736750 0.33466048 0.37469149
0.99490109 0.98553301 0.03773695
0.68212829 0.33996219 0.37832118
0.50068203 0.00879702 0.03866034
0.51360231 0.52108822 0.03796886
0.01462556 0.51459249 0.04447393
0.32784195 0.66277346 0.70732345
0.32884757 0.16086716 0.71591578
0.67254868 0.82981231 0.37637152
0.83187176 0.16607816 0.70339491
0.16749342 0.84893005 0.37562512
0.83175172 0.64760545 0.70769871
0.16655296 0.33540970 0.36771780
0.00001225 0.99781323 0.03491182
0.66550345 0.33189436 0.37071731
0.49358230 0.99464021 0.03465759
0.50842177 0.52365616 0.04178327
0.00236700 0.50380632 0.04072816
0.32859386 0.65762411 0.69904982
0.32742951 0.16318442 0.71060478
0.66946085 0.82738931 0.37820829
0.83651469 0.18199727 0.70111515
0.17708209 0.85458901 0.36619889
0.83313534 0.65285657 0.70863575
0.16984539 0.32913561 0.37498877
0.00189808 0.01208775 0.03912384
0.66328050 0.33372452 0.36975505
0.49737308 0.98607749 0.03735242
0.49877263 0.51754762 0.04411886
0.98930870 0.49764989 0.03829365
0.32668985 0.65417515 0.69573894
0.32937060 0.16721379 0.70697171
0.65890105 0.82727201 0.38068484
0.84123982 0.18116999 0.70134359
0.18181294 0.85309277 0.36809247
0.83277527 0.65781841 0.71147996
0.16503981 0.32363127 0.38778382
0.99504726 0.00993408 0.04243942
0.67782254 0.33758466 0.37446206
0.50878539 0.98788147 0.04364624
0.49657697 0.51338419 0.04639314
0.99444211 0.50584158 0.03789922
0.32636110 0.65799750 0.69892761
0.33169864 0.16733314 0.70881609
0.65700684 0.83056630 0.37964772
0.84383065 0.16589310 0.70188497
0.17110035 0.84684287 0.37627728
0.83262176 0.65950253 0.71426544
0.16057839 0.32022884 0.38612165
0.99190416 0.00176815 0.04264891
0.67738784 0.33138090 0.37053913
0.51126753 0.00043097 0.04742430
0.49731528 0.50643226 0.05069409
0.00458209 0.50973322 0.03970994
0.32412633 0.66068256 0.70449671
0.33344445 0.16182943 0.70982792
0.66230787 0.83453763 0.37584037
0.83853289 0.15538297 0.70345017
0.16641269 0.83989358 0.37872615
0.83192798 0.66180559 0.71630540
0.16526838 0.32466413 0.37697462
0.99901989 0.00340591 0.03813928
0.65963141 0.32214834 0.36517858
0.50339498 0.00632655 0.04322482
0.49375738 0.49702754 0.04919215
0.00378913 0.50092621 0.04171889
0.33002360 0.66933720 0.70536108
0.32961096 0.15813512 0.70484392
0.66873649 0.83421552 0.36935566
0.83108141 0.16186780 0.70794696
0.17022649 0.83716471 0.37292157
0.82959767 0.66304764 0.71644113
0.17647696 0.33939398 0.37472644
0.00962896 0.01163148 0.03416245
0.65141853 0.32718989 0.36511000
0.49925341 0.00116372 0.04030592
0.49085890 0.49248706 0.04333879
0.99281845 0.48988944 0.04309296
0.33990968 0.67534615 0.70457173
0.32596125 0.15963871 0.70117818
0.67244540 0.83130529 0.36784691
0.83215465 0.17245557 0.70808386
0.16584501 0.83353386 0.37086396
0.83346443 0.66579633 0.71412304
0.18214373 0.35114618 0.38017391
0.01211578 0.00987856 0.03438320
0.66420152 0.34400385 0.36750224
0.50090354 0.00100196 0.04705226
0.49057286 0.49116241 0.04222784
0.98677926 0.49027608 0.04104179
0.33922655 0.67031935 0.70874162
0.33109393 0.16158014 0.70301114
0.67210303 0.83212607 0.37358061
0.83120275 0.16955577 0.70534275
0.15616452 0.82574259 0.37516893
0.83847633 0.67120029 0.71182111
0.17657406 0.34967642 0.38506727
0.00241157 0.99804420 0.03572611
0.68078798 0.35184866 0.37121376
0.50825198 0.00674688 0.05380694
0.49310401 0.49285335 0.04448935
0.99218256 0.49928113 0.03718186
0.33468298 0.66847628 0.71211807
0.33920744 0.16413621 0.70733005
0.67099535 0.83267607 0.37666883
0.82927566 0.16065526 0.70803973
0.15175268 0.82237950 0.37736431
0.83644023 0.67233182 0.71188700
0.16601189 0.33882028 0.38245212
0.00132728 0.99618373 0.03890246
0.68064485 0.34284624 0.37002706
0.51120574 0.01079490 0.05292485
0.49345581 0.49220905 0.04688220
0.00087647 0.49931997 0.03865008
0.33287820 0.66882474 0.71178076
0.33971999 0.16510277 0.70600505
0.67098337 0.83314187 0.37451167
0.82973321 0.15880893 0.71250756
0.15519907 0.82658427 0.37718902
0.83212272 0.66857013 0.71226968
0.16233958 0.33152050 0.37882553
0.01007690 0.00089687 0.03635048
0.67130284 0.33352909 0.36890192
0.50261229 0.00396372 0.04513439
0.49626060 0.49294288 0.04546206
0.00441865 0.49360774 0.04070595
0.33638413 0.67060521 0.70568375
0.33710773 0.16783352 0.70221381
0.67346612 0.83997324 0.36905869
0.83094497 0.16751365 0.71315003
0.16233422 0.83241886 0.37474671
0.82993255 0.66748262 0.71083445
0.16720798 0.33643392 0.37719998
0.00720928 0.00288996 0.03487289
0.66571766 0.33209583 0.37329217
0.49132493 0.98850524 0.04182181
0.49924996 0.49822081 0.04153180
0.00046315 0.49059276 0.03978944
0.34329255 0.67600152 0.70046169
0.33502791 0.17337781 0.70309530
0.67384496 0.84214925 0.36734069
0.83283364 0.17603417 0.71008759
0.16348001 0.83057083 0.37198555
0.83129184 0.67229810 0.70786734
0.16963696 0.33977681 0.37826369
0.99981203 0.00234326 0.03989691
0.66757583 0.33590621 0.37858644
0.48778042 0.98371658 0.04419860
0.49927090 0.50132470 0.03895796
0.00030869 0.49775410 0.04029604
0.34229300 0.67667897 0.70276528
0.33964917 0.17456080 0.70603237
0.66889704 0.83824555 0.37112620
0.82921929 0.17022629 0.70678140
0.16319223 0.82490627 0.37490977
0.83195202 0.67506981 0.70709039
0.16011427 0.33197662 0.37765908
0.99588843 0.99897322 0.04463143
0.67049675 0.33242374 0.38082709
0.49132553 0.99178301 0.04806114
0.49954621 0.49868166 0.03803205
0.00893097 0.50871486 0.04167029
0.33789371 0.67366131 0.70873095
0.34142268 0.17130813 0.70887825
0.66502961 0.83474533 0.37220394
0.82608185 0.16051183 0.70623723
0.16709410 0.82495823 0.37913896
0.82902497 0.67120948 0.70864677
0.15267914 0.32255221 0.37244232
0.99773927 0.99783087 0.04632100
0.66728496 0.32633122 0.37903086
0.49772549 0.00452413 0.04639490
0.49746596 0.49446937 0.03944715
0.01419234 0.50942208 0.04117283
0.33847922 0.67075635 0.71050492
0.33393344 0.16751098 0.70763615
0.66890112 0.83502786 0.36913865
0.82960784 0.16272320 0.70656608
0.16999225 0.82956342 0.37823515
0.83122638 0.66777503 0.71063083
0.16036150 0.32281520 0.37174991
0.00503974 0.00058642 0.04652164
0.66108372 0.32774066 0.37881523
0.49782199 0.00985830 0.03738759
0.49573549 0.49242437 0.04070816
0.01111397 0.50400267 0.03876705
0.33747374 0.66790266 0.70729520
0.32891791 0.16724128 0.70335848
0.67339079 0.83628769 0.36729208
0.83180613 0.17068190 0.70548854
0.16715529 0.82928715 0.37452022
0.83699657 0.66689967 0.71150958
0.17178888 0.33553484 0.37609085
0.00378640 0.00198289 0.04661837
0.66147181 0.33254122 0.38174365
0.50063991 0.00843219 0.03240312
0.50026449 0.49742634 0.03842228
0.00339673 0.49971040 0.03736638
0.33467627 0.66748598 0.70617932
0.33292270 0.17240829 0.70326570
0.67388379 0.83369109 0.36996962
0.83237316 0.17145621 0.70487835
0.16398570 0.82808568 0.37310196
0.84111168 0.66969905 0.70918218
0.17392072 0.34523689 0.37786141
0.99509581 0.99801147 0.04757000
0.66665264 0.33780994 0.38205515
0.50420077 0.00895755 0.03974519
0.50529686 0.50274503 0.03941234
0.00027917 0.49942761 0.03813665
0.33076502 0.66434041 0.71101567
0.33994225 0.17301965 0.70640759
0.66934044 0.82872477 0.37527611
0.83231072 0.16375572 0.70809140
0.16905720 0.83277267 0.37738053
0.84299355 0.67502948 0.70623569
0.16471723 0.33707092 0.37495960
0.99091765 0.99254772 0.04639861
0.66849665 0.33718609 0.37820279
0.49888992 0.00601237 0.04567797
0.50912398 0.50461719 0.04444076
0.00027501 0.50090711 0.04037375
0.32624274 0.66066064 0.71483338
0.34255436 0.16932922 0.70753388
0.65901599 0.82540151 0.37641517
0.83443558 0.16036213 0.71496525
0.17433527 0.83895713 0.38016036
0.83865738 0.67249210 0.70513872
0.15757791 0.32483232 0.36967787
0.99388351 0.99460349 0.04385825
0.66360812 0.32937933 0.37074865
0.49707141 0.00424526 0.04201481
0.51167641 0.50634422 0.04491620
0.99973459 0.49883158 0.04226144
0.32444609 0.65684804 0.71344344
0.33259215 0.16478635 0.70648701
0.65459973 0.82581254 0.37513844
0.84428616 0.16888582 0.71400962
0.17085053 0.84188313 0.37649046
0.83391537 0.66615727 0.70352170
0.16585699 0.32804546 0.36721827
0.99668268 0.99903765 0.04162660
0.65738308 0.32681989 0.36730842
0.50048946 0.00337465 0.03493249
0.51116517 0.50705955 0.04174818
0.00007086 0.49794866 0.04226024
0.32498932 0.65347831 0.71006953
0.32462198 0.16387805 0.70838743
0.66058019 0.83218612 0.37728468
0.84639078 0.17560313 0.70886005
0.17074125 0.84019437 0.37042454
0.83009498 0.66233042 0.70167854
0.17743673 0.34552505 0.37085507
0.98989233 0.99908189 0.04104855
0.66061412 0.33037890 0.37095818
0.50479930 0.00171216 0.03208426
0.50691490 0.50687639 0.03768765
0.99822157 0.50236002 0.04275806
0.32753376 0.65597129 0.70825576
0.32497300 0.16656949 0.71264245
0.66496391 0.83515332 0.38270564
0.84338410 0.17248805 0.70932514
0.17881002 0.84050817 0.36973986
0.82620091 0.66562826 0.69845065
0.17585499 0.34975688 0.37393952
0.98754854 0.00075133 0.04139594
0.66690047 0.33174367 0.37503133
0.50426401 0.99783880 0.03564065
0.50115333 0.50159110 0.04111645
0.99882927 0.51087144 0.04605747
0.32874663 0.66061103 0.70909595
0.32904792 0.16754103 0.71644003
0.66076845 0.82871299 0.38617680
0.84346829 0.16275076 0.71227207
0.18474323 0.84560419 0.37691178
0.82658855 0.66794261 0.69898680
0.16709788 0.33660685 0.37088666
0.99627751 0.00122641 0.03882438
0.66515623 0.33013560 0.37591049
0.49926827 0.99802999 0.03732325
0.49842456 0.49579568 0.04860826
0.00017314 0.51118050 0.04585107
0.32747872 0.66345798 0.71081673
0.33241472 0.16596881 0.71557101
0.65623132 0.82356619 0.38589931
0.84208533 0.15639670 0.71135853
0.18585311 0.84437045 0.37890105
0.83366649 0.66534250 0.70472822
0.16179570 0.32478448 0.36760075
0.00500418 0.00163450 0.03781839
0.66463057 0.33189291 0.37856345
0.50534344 0.00413307 0.03186035
0.49735113 0.49854608 0.04377870
0.99299027 0.49919242 0.04429417
0.32836708 0.66364091 0.70762275
0.32951216 0.16259272 0.71042332
0.66351755 0.82941092 0.38146237
0.84473034 0.16296851 0.70586803
0.17582398 0.83525951 0.36894864
0.84092054 0.66563529 0.70698412
0.16790218 0.32903904 0.36926408
0.01167686 0.00405378 0.04100016
0.66678131 0.33882345 0.38210442
0.51472420 0.00812347 0.02955621
0.49417289 0.50007511 0.03506824
0.98576546 0.49298000 0.04596061
0.32803679 0.66119226 0.70201423
0.32986079 0.15984052 0.70985758
0.67431702 0.84595273 0.37968463
0.84247040 0.17446699 0.69973145
0.15727680 0.82346877 0.36621639
0.83967118 0.66644165 0.70510550
0.17342311 0.34571296 0.37190391
0.01345119 0.00601129 0.04341702
0.67064704 0.34214326 0.38552512
0.51476855 0.00204688 0.03448178
0.49526310 0.49874861 0.03341540
0.98515944 0.49765708 0.04904361
0.33085782 0.66526533 0.70360770
0.33579839 0.15814938 0.71583984
0.68021599 0.85635709 0.37880527
0.83543976 0.17844281 0.70206559
0.15998673 0.82793309 0.37500774
0.82909564 0.66566942 0.70174282
0.16895664 0.34988157 0.36549774
0.00908611 0.00578304 0.04319206
0.67180093 0.33470136 0.38336767
0.50775945 0.99633826 0.04280314
0.49809043 0.49647674 0.03975664
0.99021818 0.50180506 0.05295051
0.33741200 0.67084297 0.70904185
0.33684747 0.15779185 0.72208005
0.67800707 0.84419820 0.38021212
0.83360190 0.17367892 0.71056835
0.17510888 0.84511847 0.38278813
0.82188945 0.66250984 0.70168531
0.16591047 0.33133063 0.35954195
0.00668040 0.00192412 0.04060765
0.66070285 0.32065178 0.37757315
0.50132863 0.00061014 0.04352715
0.49760618 0.49588877 0.04308511
0.99341403 0.50018073 0.05180552
0.33954234 0.67389724 0.70886048
0.33579435 0.16218116 0.72087751
0.65967319 0.82928967 0.38214831
0.83020484 0.17063619 0.71024862
0.17703327 0.84665705 0.38141942
0.81967206 0.65149850 0.70657044
0.16689048 0.31700471 0.36505184
0.00688937 0.00080810 0.04102253
0.65277887 0.31472899 0.37334623
0.50353434 0.00724124 0.03750123
0.49577792 0.50286728 0.03375413
0.99667545 0.48951137 0.04700926
0.33877483 0.67413823 0.69960940
0.33068105 0.16539559 0.71413239
0.64875897 0.82966399 0.38170706
0.82888343 0.17680410 0.70199653
0.16240514 0.83698742 0.37135200
0.82512532 0.64504321 0.71124652
0.16548426 0.31567314 0.37568442
0.00199464 0.99983951 0.04553287
0.65737436 0.32902516 0.36783358
0.50640338 0.99899372 0.03735767
0.49957519 0.51402173 0.02534058
0.00130623 0.48629053 0.04032382
0.34160624 0.67145150 0.69438157
0.32832543 0.17109949 0.70970680
0.65979847 0.84105149 0.37849066
0.82851599 0.18536167 0.69992000
0.15557934 0.83559240 0.36818080
0.83232254 0.64802910 0.71283589
0.16106829 0.32265327 0.37986907
0.99788400 0.99627332 0.04619740
0.66118933 0.33917935 0.36965310
0.50272937 0.98154965 0.04031755
0.50671818 0.52080543 0.02775382
0.00545053 0.49465328 0.03244593
0.34631219 0.67224796 0.70270884
0.32975588 0.17618838 0.71220233
0.67581240 0.84627408 0.37353445
0.82587079 0.18848136 0.70921771
0.16244066 0.83687256 0.37748062
0.83998848 0.66002114 0.71186517
0.15785345 0.32735644 0.37576501
0.99944514 0.99355535 0.03895227
0.66240199 0.33939459 0.37102707
0.49713101 0.97498707 0.04530127
0.51449194 0.51816410 0.03815104
0.00104331 0.49526470 0.04060272
0.34869494 0.67283383 0.71488842
0.32886459 0.17421849 0.71304094
0.67620806 0.83358032 0.37310744
0.82605082 0.17584444 0.71585638
0.16561376 0.83658332 0.38335944
0.84781003 0.67702001 0.71459033
0.16565536 0.32734930 0.37360745
0.00175736 0.99558302 0.03119048
0.66842099 0.34437223 0.36484069
0.49404782 0.98673451 0.05079734
0.51105358 0.50480018 0.04415875
0.99435396 0.49577204 0.04872604
0.34153498 0.66577268 0.71680594
0.32914066 0.16784384 0.70553537
0.66376636 0.82110876 0.36606117
0.83161678 0.16903605 0.71008243
0.15677254 0.83048092 0.38148508
0.85263412 0.68154217 0.72200261
0.17163593 0.32384040 0.38009886
0.00186733 0.00791766 0.03115581
0.68380167 0.35172266 0.36209471
0.49576174 0.99726426 0.05439455
0.49665822 0.49842266 0.04124074
0.99289976 0.49345338 0.04306027
0.33158082 0.65545186 0.70894563
0.33111810 0.16436286 0.69628940
0.65427763 0.82280860 0.35636473
0.83107679 0.16532455 0.70512487
0.14812125 0.82204648 0.37484832
0.84810273 0.67466983 0.72516978
0.17186185 0.32225642 0.38885090
0.99832544 0.01130043 0.03725243
0.69338174 0.35498937 0.36729221
0.49976062 0.98975496 0.05119034
0.49783148 0.50813784 0.03803910
0.00716030 0.49631457 0.03211004
0.32977047 0.65912933 0.70456193
0.33385368 0.16379006 0.69324688
0.65722655 0.83063695 0.36120129
0.82568030 0.16126692 0.70998157
0.15574580 0.81947467 0.37455232
0.83916143 0.66930153 0.71527376
0.17012484 0.32709338 0.38590825
0.99833986 0.00962044 0.03948917
0.68359380 0.34945068 0.37333534
0.49597376 0.98280568 0.04873309
0.51202038 0.51320525 0.03947439
0.01743312 0.50278455 0.02737487
0.33836066 0.66929247 0.70420023
0.33394408 0.16498145 0.70174014
0.66302070 0.83561591 0.37301577
0.82446880 0.16140262 0.71508953
0.16918110 0.82326050 0.38007483
0.83638138 0.67214581 0.70303430
0.16605104 0.33516122 0.38102023
0.00102298 0.01067308 0.03279170
0.66709028 0.33677441 0.37174970
0.48662413 0.98898133 0.05166506
0.51134608 0.50059376 0.04635444
0.00922781 0.50633061 0.03452851
0.34535951 0.67073556 0.70322127
0.33094908 0.16751072 0.71153755
0.66117947 0.82721657 0.37868976
0.82638682 0.16282966 0.71416290
0.17259794 0.83407387 0.38087835
0.83244052 0.67251340 0.70514680
0.16187564 0.32981761 0.38470149
0.00249065 0.01021916 0.02723156
0.65958915 0.32726238 0.36627841
0.48565893 0.99853182 0.05057002
0.49565527 0.48489473 0.05101490
0.99830844 0.50493526 0.03889844
0.34593156 0.66850703 0.70317549
0.32927372 0.16465982 0.71091382
0.66031039 0.82268551 0.37694456
0.83211461 0.16562434 0.70679409
0.16554540 0.84067629 0.37664947
0.82776419 0.66310469 0.71392049
0.15931104 0.32247458 0.38897445
0.00683455 0.00974052 0.03087707
0.67012713 0.33259203 0.36745045
0.49536768 0.00488735 0.04395457
0.48021080 0.47996687 0.05085368
0.99972611 0.50248124 0.03603691
0.33449150 0.66524648 0.70217085
0.33395038 0.16241363 0.70524909
0.66466800 0.82848214 0.37344884
0.83783088 0.16860494 0.70143172
0.15998319 0.83396908 0.37095817
0.82600783 0.65598270 0.71632991
0.15948331 0.32714507 0.38225536
0.00970310 0.00775280 0.03760543
0.68560953 0.34730051 0.37259343
0.50103092 0.00259540 0.03954176
0.48758286 0.49533470 0.04747936
0.00494766 0.50188462 0.03341367
0.33289309 0.66816792 0.70381991
0.33931139 0.16643706 0.70332003
0.67221063 0.83575740 0.37616917
0.83755190 0.16646935 0.70425908
0.16448257 0.82831230 0.37147778
0.82706459 0.66175677 0.71118947
0.16240828 0.33432830 0.37302265
0.01010892 0.00327491 0.03820370
0.68323010 0.34725866 0.37725831
0.49682500 0.99867624 0.04331873
0.50035394 0.50313274 0.04625419
0.00417555 0.50443242 0.03658666
0.34176695 0.67583087 0.70419137
0.33681922 0.16719318 0.70604172
0.67758726 0.83723287 0.37833598
0.83281818 0.16338870 0.71103362
0.16807380 0.83220774 0.37706917
0.83264277 0.67012650 0.70774032
0.15957053 0.33565648 0.37274477
0.01161140 0.00356609 0.03477352
0.66971090 0.33641276 0.37565790
0.49303351 0.00007678 0.05325782
0.49893362 0.49370900 0.04472957
0.00034616 0.50639079 0.04136262
0.34128109 0.67748668 0.70494990
0.33556714 0.16494842 0.70696596
0.67546725 0.82833684 0.37344347
0.82703714 0.15857988 0.71241179
0.16515681 0.83514206 0.37847164
0.83407357 0.67034419 0.71191817
0.15967390 0.33458505 0.37888995
0.00825186 0.00639828 0.03716629
0.66612509 0.33450032 0.37268129
0.49589754 0.00298431 0.05283804
0.48872767 0.48864032 0.03752340
0.99873099 0.50407331 0.04185107
0.33541688 0.67348047 0.70913719
0.34150498 0.16588834 0.70482787
0.66883657 0.82294486 0.36733492
0.82985007 0.16012602 0.70631827
0.16277254 0.83121287 0.37378117
0.82806151 0.66503412 0.71580508
0.16583152 0.33359889 0.38046076
0.99944003 0.00578947 0.04630503
0.67711473 0.34155450 0.37541328
0.50171969 0.00433995 0.04090704
0.48522257 0.49341048 0.03332513
0.00273859 0.50091855 0.03828645
0.33287475 0.67189537 0.71142312
0.34543339 0.16867843 0.70305418
0.66630658 0.83203803 0.36789472
0.83849592 0.16665477 0.70632199
0.16473486 0.82506282 0.37054954
0.81908682 0.65946405 0.71209091
0.16983265 0.33586433 0.37331940
0.99524056 0.99981884 0.04915497
0.68121740 0.34119220 0.37739758
0.50583206 0.00342348 0.03474209
0.49565148 0.50211010 0.03606024
0.00773749 0.49905835 0.03819534
0.33467558 0.67257097 0.71031790
0.34191601 0.16948362 0.70443541
0.67228795 0.84299953 0.37319169
0.83503606 0.16567971 0.71163659
0.16960774 0.82682387 0.37468676
0.81958136 0.66006280 0.70521970
0.16989867 0.33929301 0.36734205
0.99676997 0.99353646 0.04474782
0.66484155 0.32968223 0.37546189
0.50198340 0.00300003 0.03941495
0.50903140 0.50756532 0.04008877
0.00567922 0.49971885 0.04164219
0.33689222 0.67214710 0.70829174
0.33453694 0.16848501 0.70969071
0.67781916 0.84304244 0.37479493
0.82799671 0.16405173 0.71276250
0.17286850 0.83509350 0.38060435
0.82929181 0.66464333 0.70304158
0.16724488 0.33987607 0.36801954
0.99824956 0.99468889 0.04210787
0.64880672 0.32048172 0.37607508
0.49668624 0.00345086 0.04473374
0.50456450 0.50219830 0.04134657
0.99925107 0.49914688 0.04425803
0.33172563 0.66656610 0.70807089
0.33069373 0.16741684 0.71242774
0.67264537 0.83579217 0.37351112
0.83006671 0.16900654 0.70899657
0.17383442 0.83917083 0.37837199
0.83600407 0.66658885 0.70569899
0.16294516 0.33567462 0.37317118
0.99630525 0.99680961 0.04464930
0.65277951 0.32404545 0.37935397
0.49903146 0.00049173 0.04182374
0.49650717 0.50078196 0.03806487
0.99598972 0.49802046 0.04430064
0.32382152 0.66257788 0.71128367
0.33293844 0.16673779 0.70841074
0.66245247 0.83218747 0.37592562
0.83864753 0.17261953 0.70365710
0.17464399 0.83740026 0.37118036
0.83539565 0.66489355 0.70569998
0.16151249 0.32944574 0.37649571
0.99542066 0.99499644 0.04785529
0.66316065 0.33337350 0.37870127
0.50494283 0.99846006 0.03526864
0.50172082 0.50772797 0.03685277
0.99933482 0.50053985 0.04320409
0.32430215 0.66284057 0.71198315
0.33597619 0.16920681 0.70630400
0.65930213 0.83980469 0.37823981
0.84558404 0.17197537 0.70241629
0.17372826 0.83407965 0.37031599
0.83728481 0.66735374 0.70186270
0.16360222 0.32835867 0.37313022
0.99498561 0.99259678 0.04576964
0.66531736 0.33483258 0.37450637
0.50677486 0.00011772 0.03466219
0.51317049 0.51073049 0.04324664
0.00271626 0.49911532 0.04353712
0.33044033 0.66343388 0.70773105
0.33401017 0.17109091 0.70927011
0.66451103 0.84417632 0.38056250
0.84009261 0.16945425 0.70680415
0.16834085 0.83248533 0.37414569
0.84335327 0.67458132 0.69949643
0.16999331 0.33391369 0.37224064
0.99643728 0.99349685 0.04097620
0.65549688 0.32897262 0.37429839
0.50245144 0.00214426 0.04007105
0.52024687 0.50731358 0.04839699
0.99873258 0.49417567 0.04396215
0.33401229 0.66668532 0.70598451
0.32711458 0.16806452 0.71084741
0.66847839 0.83444218 0.38206172
0.83101044 0.16881517 0.70784193
0.16479057 0.83354043 0.37445647
0.84763330 0.67625485 0.70175581
0.17476072 0.34261858 0.37745770
0.99805261 0.00061293 0.03915107
0.64938543 0.32648311 0.37859503
0.49783789 0.00214726 0.04522964
0.51203412 0.49918206 0.04370880
0.99347906 0.49184978 0.04204981
0.33155650 0.66423177 0.71042737
0.32621910 0.16589489 0.70835314
0.66584268 0.82489063 0.37983377
0.83109559 0.16724563 0.70086495
0.16804740 0.83267853 0.37288417
0.84669214 0.67257237 0.70625222
0.17450911 0.34446116 0.38073673
0.99183998 0.00282111 0.04166643
0.66198682 0.33129882 0.37931973
0.50030727 0.00152632 0.04210121
0.50143088 0.49536482 0.03693687
0.99504538 0.49564163 0.03956690
0.32965448 0.65876901 0.71353037
0.33233665 0.16848322 0.70523723
0.66111750 0.82586541 0.37931360
0.83568605 0.16375977 0.69697593
0.17015027 0.82985929 0.37106542
0.83716468 0.67078128 0.70654179
0.17710068 0.33882070 0.37611615
0.98261528 0.99645146 0.04449362
0.67626252 0.33704827 0.37687242
0.50532211 0.00250044 0.03088095
0.50556289 0.50005861 0.04030049
0.00136565 0.50310773 0.03944049
0.33391640 0.65940794 0.70939867
0.33263212 0.16653750 0.70717857
0.66383622 0.83836864 0.38203300
0.83780972 0.16391849 0.70447167
0.16720777 0.82826088 0.37239721
0.83132817 0.67268505 0.70357385
0.17902769 0.33814452 0.36682226
0.98691961 0.99479317 0.04014842
0.67581005 0.33538571 0.37481725
0.50530670 0.00795220 0.02970245
0.50637414 0.50067551 0.04679776
0.00869179 0.50793540 0.04500177
0.33640089 0.66379443 0.70695087
0.32521278 0.16227889 0.71262912
0.66914253 0.84405985 0.38137714
0.83287308 0.16509461 0.71469503
0.16092429 0.83155653 0.37650056
0.83947556 0.67837649 0.70431776
0.17298566 0.33722639 0.36330284
0.99854663 0.99496096 0.03483406
0.65968169 0.32904229 0.37531319
0.50008069 0.00920394 0.03907398
0.49667657 0.49495265 0.04239118
0.00911267 0.50830844 0.05233092
0.33774986 0.66893154 0.71206154
0.32114449 0.16387572 0.71623233
0.66927033 0.83479837 0.37392304
0.82583228 0.16493921 0.71706368
0.15912275 0.83964340 0.37740250
0.84524473 0.67761715 0.70691428
0.16340634 0.33013440 0.36822257
0.00672279 0.99740989 0.03894136
0.64882389 0.32540604 0.37581712
0.49331055 0.99884735 0.04560558
0.48577068 0.48995330 0.03077535
0.00491334 0.50774881 0.05407323
0.33373647 0.66810072 0.71487890
0.32735784 0.16636153 0.71370319
0.66982731 0.82847610 0.36854617
0.82526870 0.16417891 0.71146108
0.16448226 0.84422407 0.37513019
0.83819438 0.66658582 0.70607620
0.15585882 0.32251429 0.37033208
0.00345883 0.00108092 0.04691560
0.66725632 0.32951469 0.37441536
0.49543469 0.98862941 0.04186998
0.48651261 0.49502358 0.02815003
0.00014351 0.50731894 0.05060995
0.33120686 0.66690221 0.71006260
0.33899946 0.16600906 0.70940913
0.67194764 0.83143524 0.37345454
0.82479743 0.15895404 0.70565850
0.16922670 0.84229792 0.37169063
0.82753104 0.65497662 0.70582340
0.15885264 0.31919738 0.36696465
0.00043058 0.99996377 0.04958820
0.69495563 0.33655201 0.36954081
0.50233792 0.99370246 0.03475382
0.49973386 0.50418270 0.03832998
0.99809725 0.51028906 0.04603012
0.34042040 0.67186081 0.70293808
0.34477015 0.16676995 0.70906148
0.67103380 0.83692751 0.38024349
0.82558456 0.16106767 0.70718883
0.16905785 0.83772749 0.36842866
0.82610984 0.65415521 0.71118019
0.17235414 0.32352750 0.36600182
0.00783094 0.00209665 0.04602906
0.70041363 0.33229700 0.36620732
0.50665962 0.00896780 0.03715450
0.50356304 0.50500691 0.04674541
0.00161902 0.50849355 0.04135436
0.34534699 0.67294485 0.70185978
0.34391775 0.16865673 0.70584589
0.66944374 0.83673900 0.37753030
0.82730555 0.17083726 0.70947740
0.16229411 0.83326766 0.37156617
0.83028126 0.65893237 0.71855067
0.17682600 0.33344467 0.37459958
0.01043101 0.00720693 0.04072661
0.67956073 0.32018091 0.36711734
0.50544579 0.00736852 0.04991411
0.49250398 0.50060689 0.04149356
0.00106062 0.50132422 0.04029199
0.34148112 0.67113617 0.70778765
0.34262496 0.17568172 0.69938333
0.66927922 0.82733510 0.36752348
0.82556060 0.17671782 0.70453750
0.15651760 0.83135508 0.37980287
0.82968830 0.65303781 0.72101492
0.16661510 0.33924034 0.38225427
0.00367676 0.00811630 0.04058624
0.65724029 0.32300364 0.36918160
0.50345629 0.99378632 0.05574973
0.48425083 0.49613951 0.03438387
0.99514294 0.49748337 0.04057341
0.33830224 0.67107830 0.71187873
0.34233284 0.17922649 0.69620218
0.66429958 0.82646278 0.36141707
0.82466835 0.17161749 0.69580058
0.16679079 0.83081889 0.38580582
0.82730550 0.64914721 0.71709769
0.14958704 0.33849358 0.37902565
0.99565033 0.00138601 0.04310536
0.65963716 0.33965827 0.37134685
0.51086236 0.99297824 0.04931240
0.48170919 0.49305136 0.04109591
0.99320353 0.50031722 0.04273798
0.33690369 0.67565067 0.70598371
0.33778384 0.16997619 0.69986282
0.66045793 0.83385443 0.36266476
0.83194915 0.16193408 0.70019782
0.17484381 0.82927752 0.38374835
0.82476335 0.66122099 0.71387440
0.15867196 0.34221454 0.38233589
0.99488718 0.98983370 0.04248615
0.67544968 0.34582901 0.36960053
0.51877753 0.00659856 0.04331323
0.48641763 0.49810283 0.05676896
0.99668155 0.50562317 0.04153991
0.33414107 0.67590761 0.69859189
0.33388417 0.16143568 0.70362434
0.66566310 0.83666658 0.36857377
0.83405470 0.15841134 0.71192954
0.17347917 0.83071428 0.38177302
0.82755299 0.67360137 0.71010335
0.17121075 0.33686630 0.38942978
0.00433292 0.98593605 0.04144638
0.67015910 0.33283088 0.36192371
0.51250083 0.01546859 0.04903346
0.49535961 0.50795745 0.06473443
0.00041674 0.50589776 0.03172814
0.32979205 0.66791624 0.69739749
0.33116710 0.16462280 0.70572481
0.67776281 0.83562965 0.37184316
0.83353634 0.16540293 0.71739721
0.16985478 0.83124907 0.38394049
0.83885391 0.67454082 0.70874911
0.16264358 0.32298311 0.38751112
0.01227209 0.99695743 0.03658959
0.65433399 0.32734765 0.36090710
0.49906989 0.00491647 0.05561362
0.50382893 0.51605958 0.05814736
0.00169219 0.49884770 0.02393726
0.32767083 0.66146084 0.70213055
0.33524503 0.17634183 0.70708596
0.68544813 0.83377875 0.37193746
0.83247388 0.17250750 0.71761172
0.16654127 0.82797622 0.38225357
0.84740091 0.67437407 0.71335904
0.15306581 0.32064047 0.38327979
0.01455526 0.01032892 0.02818098
0.65586649 0.34226897 0.36867668
0.49112397 0.98575702 0.05142546
0.50740274 0.51081220 0.04601829
0.99403858 0.48962602 0.02651777
0.33430953 0.66253221 0.70748249
0.33943882 0.17709456 0.70201150
0.67577074 0.83330188 0.37266480
0.82861196 0.17029302 0.71497000
0.16724821 0.82823392 0.37658374
0.84985016 0.67661282 0.71692086
0.15125338 0.32808381 0.38182024
0.01212234 0.01275975 0.02503280
0.67316776 0.35843169 0.37719272
0.49076414 0.98282225 0.04566137
0.50016036 0.49120465 0.04191886
0.98233662 0.48844993 0.03393562
0.34525858 0.66759566 0.70768949
0.33711073 0.16466913 0.69721854
0.66215076 0.83575370 0.37264811
0.82781680 0.16201891 0.71332389
0.16557490 0.83367228 0.37455221
0.84218973 0.67482519 0.71748477
0.15535681 0.33260309 0.38493379
0.00550542 0.00184057 0.02942166
0.68382855 0.35677433 0.37536329
0.49159028 0.99459650 0.04686545
0.49561058 0.48721470 0.04426889
0.98762142 0.49300421 0.03862263
0.35041784 0.66869598 0.70863197
0.33782088 0.15780723 0.69937896
0.65936298 0.83686676 0.36834455
0.83139811 0.16140237 0.71430311
0.15825270 0.83570872 0.37592945
0.82951228 0.66560296 0.71604398
0.15901024 0.32866703 0.38734333
0.01060952 0.00200608 0.03576800
0.67752517 0.34201773 0.36754212
0.49075297 0.00672461 0.04662510
0.49917449 0.49747482 0.04639467
0.00282400 0.49347515 0.03520274
0.34484545 0.66710006 0.70816631
0.33994491 0.16675307 0.70528597
0.66829591 0.83654030 0.36484244
0.83239267 0.16454413 0.71726027
0.15206661 0.82857355 0.37910406
0.82596275 0.66259235 0.71482218
0.16026864 0.32941622 0.38261565
0.01567137 0.01162183 0.03838511
0.66419813 0.33215153 0.36822763
0.48834679 0.00442121 0.04638765
0.49812405 0.50082387 0.03910190
0.01278300 0.49507625 0.03080188
0.34064612 0.66923354 0.70736010
0.34197015 0.17771193 0.70718730
0.67348077 0.83664334 0.36381639
0.82793814 0.16095946 0.71586744
0.15395604 0.82284867 0.38081413
0.82998880 0.66797244 0.71408396
0.16020030 0.34113035 0.37354658
0.00940907 0.01154872 0.03954942
0.66108466 0.33592605 0.37749474
0.48731084 0.99312904 0.04690236
0.49061379 0.49372696 0.03226465
0.01000359 0.49848879 0.03457568
0.34525997 0.67121035 0.70531506
0.34262969 0.17349673 0.70433347
0.66865438 0.83656603 0.36636002
0.82498166 0.15799000 0.70940706
0.16411623 0.82970800 0.37728395
0.82971679 0.67096758 0.70970276
0.15945519 0.34683883 0.37051195
0.00187293 0.00053843 0.04345800
0.66830559 0.34248296 0.38036592
0.48784833 0.98990513 0.04486162
0.49433220 0.48939803 0.03803510
0.00234882 0.50210956 0.04195051
0.34651273 0.67122215 0.69832961
0.33972871 0.16062915 0.70372138
0.66511465 0.83661288 0.37259576
0.83255496 0.16502887 0.70865636
0.17088745 0.83857887 0.37394804
0.82681096 0.66960088 0.70489554
0.15850529 0.33878753 0.36987898
0.99611749 0.99074455 0.04479443
0.67739879 0.34135773 0.37796037
0.49109299 0.99643032 0.04195522
0.50237453 0.49735014 0.04544006
0.00505572 0.50432386 0.04448838
0.33915991 0.67121839 0.69667117
0.33646211 0.15888374 0.70635171
0.66977882 0.83628598 0.37768291
0.84198394 0.17459248 0.71044802
0.16628814 0.83611944 0.37356342
0.82687930 0.66500074 0.70420052
0.16076905 0.32942084 0.36711149
0.99472692 0.99264908 0.04367449
0.67621682 0.33836070 0.37762791
0.49505800 0.00513997 0.04190971
0.50708360 0.50741868 0.04621619
0.01224076 0.50221651 0.04317539
0.33156110 0.66687308 0.70738179
0.33450804 0.16575488 0.70811360
0.67373748 0.83488861 0.37707841
0.84240537 0.17392845 0.70936649
0.15987008 0.82641699 0.37693015
0.82818940 0.66108620 0.70842523
0.16482382 0.32996872 0.36589407
0.99629065 0.00266063 0.04323043
0.66997574 0.33329780 0.38028067
0.49749007 0.00514368 0.04034724
0.51074514 0.51015349 0.04299567
0.01079183 0.49972559 0.04254890
0.32778917 0.66035660 0.71806432
0.33205919 0.16766800 0.70674431
0.67329830 0.83519819 0.37364225
0.83934346 0.16752143 0.70494889
0.16381149 0.82662752 0.37730179
0.82638649 0.66138457 0.71096712
0.16830019 0.33849069 0.36939661
0.99662864 0.00737249 0.04437536
0.66811243 0.32910338 0.38078104
0.49991683 0.99734624 0.03777100
0.51134251 0.50652253 0.04164469
0.00259674 0.49882500 0.04456534
0.32767014 0.65820929 0.71764208
0.33119590 0.16077456 0.70505840
0.67293625 0.83807112 0.37254713
0.83778732 0.16627972 0.70151871
0.17564039 0.83801706 0.37378982
0.82577603 0.66340363 0.70724914
0.16913360 0.34044991 0.37310658
0.99567945 0.00166056 0.04635006
0.67005481 0.33075880 0.37660403
0.50301268 0.99965491 0.03650551
0.50534693 0.49943479 0.04355275
0.99530018 0.49952649 0.04680932
0.32974838 0.66262958 0.71127255
0.33116445 0.15490015 0.70658336
0.67007028 0.83744935 0.37429604
0.83845888 0.16897618 0.70285658
0.18100116 0.84500565 0.37197294
0.82799357 0.66384384 0.70336180
0.17024593 0.33517023 0.37591168
0.99391527 0.99344821 0.04644620
0.66874490 0.33206558 0.37302804
0.50749583 0.00934287 0.03573909
0.49744833 0.49734503 0.04385308
0.99607011 0.50091446 0.04316175
0.32907172 0.66878582 0.71028392
0.32847159 0.15916752 0.71070721
0.66585408 0.83267829 0.37535375
0.84196102 0.17011057 0.70814111
0.17544809 0.84070091 0.37277277
0.83072227 0.66403380 0.70420927
0.17496382 0.33217210 0.37905299
0.99493292 0.99537217 0.04596890
0.66098057 0.32827026 0.37326819
0.51042528 0.01374401 0.03874811
0.49441531 0.49951745 0.04012228
0.00195121 0.50092165 0.03796545
0.32501019 0.66919447 0.71568969
0.32626286 0.17094888 0.71399820
0.66340427 0.82881036 0.37527723
0.83943542 0.16725284 0.71018615
0.17025651 0.83324213 0.37364140
0.83542672 0.66694486 0.70805474
0.17301100 0.33411390 0.37924837
0.99884103 0.99942904 0.04337794
0.65448376 0.32417654 0.37465366
0.51008417 0.01200032 0.04352391
0.49985335 0.50117549 0.03505273
0.99890384 0.50150730 0.03873694
0.32363842 0.66564220 0.71744896
0.32790172 0.17621159 0.71258850
0.66244413 0.82777564 0.37811107
0.83234766 0.16215484 0.70635801
0.17380184 0.83440473 0.37351653
0.84168206 0.67445927 0.70744362
0.16740999 0.34079628 0.37423790
0.00069348 0.99898172 0.03900972
0.65567771 0.32509387 0.37461054
0.50664374 0.00781628 0.04263322
0.50550658 0.50007148 0.03620651
0.99112290 0.50171595 0.04035616
0.32740062 0.66059164 0.71138095
0.33246981 0.17018943 0.71136924
0.66421920 0.83022811 0.38129209
0.83475550 0.16563020 0.70501997
0.17835130 0.84349796 0.37126070
0.84556668 0.67805876 0.70240127
0.16759820 0.34329052 0.36927917
0.99965966 0.99677321 0.03990643
0.66164642 0.32928282 0.37245688
0.50367653 0.00436468 0.03715165
0.50652392 0.49898112 0.04234874
0.98959538 0.50101441 0.04009445
0.32850050 0.66231687 0.70534229
0.33412046 0.16438214 0.71311291
0.66595180 0.83484815 0.38265348
0.84175329 0.17529837 0.70924460
0.17596833 0.84457119 0.37088897
0.84465470 0.67416230 0.69857964
0.17135102 0.33621539 0.36850302
0.99339526 0.99211407 0.04190569
0.66504647 0.33144619 0.37437975
0.50413224 0.00084277 0.03570581
0.50318105 0.50082641 0.04216001
0.99450756 0.49883610 0.04186229
0.32691242 0.66785651 0.70461010
0.33152802 0.16821630 0.71466181
0.66368516 0.83453959 0.38323725
0.84396535 0.17676072 0.71226665
0.16762214 0.83242647 0.37246370
0.84086910 0.67018268 0.70030523
0.17314755 0.32905995 0.37134373
0.99172135 0.99317257 0.04143375
0.66288875 0.33066267 0.37882573
0.50373077 0.99592724 0.03994993
0.50064343 0.50467290 0.03717612
0.99685473 0.49304155 0.04711220
0.32979828 0.66406892 0.70896206
0.33404306 0.17428902 0.71415173
0.66026006 0.83037123 0.38016846
0.83506936 0.16875707 0.70860262
0.16026989 0.82007465 0.37509387
0.83770626 0.67151883 0.70593880
0.17106254 0.33080069 0.37282293
0.00010431 0.00182177 0.04020346
0.66398919 0.33045572 0.38163449
0.49990780 0.99116187 0.04136509
0.50559037 0.50857559 0.03609647
0.99364636 0.48886476 0.05264587
0.33908075 0.66274976 0.70964474
0.34088239 0.17311730 0.71020590
0.66030522 0.82919462 0.37539740
0.82351081 0.16304317 0.70249039
0.16251485 0.82715356 0.37542849
0.83814394 0.67224401 0.70847658
0.16999361 0.33797101 0.37072933
0.00782737 0.00758499 0.03976024
0.66772394 0.33616122 0.38394166
0.49591301 0.98789897 0.03795240
0.50511356 0.50774162 0.03797866
0.99506480 0.49312843 0.05312008
0.34669422 0.67224886 0.70288606
0.34395397 0.16678579 0.70699935
0.66495675 0.83342167 0.37449835
0.82333015 0.16478832 0.70221347
0.16605141 0.84067771 0.37308103
0.84120009 0.66721821 0.70894531
0.16857418 0.33584134 0.36956974
0.00558956 0.00339664 0.04167543
0.67027158 0.34565651 0.38183359
0.49632404 0.98877443 0.03567341
0.49479127 0.50254504 0.03854796
0.00154990 0.50279281 0.04625937
0.34365201 0.68001140 0.70017089
0.34079349 0.16765207 0.70792486
0.66451748 0.83304417 0.37723689
0.83031744 0.16758516 0.70591096
0.16240598 0.83628777 0.36991352
0.83931934 0.66269672 0.71167351
0.16847765 0.32729460 0.37407963
0.99783652 0.99591038 0.04369146
0.67331584 0.34835119 0.37506947
0.50161244 0.99510384 0.03789274
0.48838688 0.49787539 0.03787279
0.00660320 0.50861915 0.04048920
0.33653773 0.67618757 0.70251146
0.33331339 0.17363077 0.70907276
0.66031712 0.82820096 0.37693030
0.83234399 0.16451297 0.70716491
0.15078235 0.82113452 0.37155143
0.83375608 0.66725336 0.71564627
0.17108476 0.32448192 0.37866590
0.99950999 0.99927296 0.04056666
0.67591472 0.34337035 0.37286656
0.49975928 0.99985906 0.04167812
0.48963502 0.49584049 0.03698237
0.00975767 0.50918511 0.04178043
0.33594218 0.66701411 0.70655118
0.33028035 0.17428187 0.70756015
0.66683319 0.83178492 0.37097405
0.82248280 0.16112563 0.70474737
0.14749668 0.81775385 0.37941146
0.83642504 0.67404278 0.71874409
0.17031372 0.32941802 0.37860202
0.00760065 0.00518626 0.03646853
0.67657458 0.33910979 0.37463311
0.49008670 0.99840600 0.04305119
0.49974207 0.50018269 0.03848624
0.00566153 0.50670447 0.04629605
0.33868316 0.66503871 0.71185455
0.33644204 0.16763161 0.70377143
0.67180298 0.84112362 0.36928011
0.81337941 0.16129551 0.70143427
0.15940803 0.83065042 0.38465772
0.84021047 0.67145890 0.71666231
0.16882574 0.33146365 0.37746268
0.00877104 0.00736664 0.03655614
0.67296222 0.33377685 0.37147748
0.48615494 0.99057987 0.04234224
0.50873881 0.50467230 0.04495091
0.00387319 0.50837382 0.04491003
0.33914069 0.66755769 0.71076613
0.33982301 0.15999577 0.70529182
0.66761287 0.84694882 0.37208325
0.81903420 0.16330782 0.70682411
0.16807822 0.84353829 0.38018240
0.83694920 0.65829847 0.71334357
0.16678050 0.32297294 0.38138094
0.00007439 0.00551483 0.04015331
0.66958221 0.32783911 0.36107474
0.49382329 0.99032669 0.04402938
0.50459631 0.50132217 0.04785266
0.00862613 0.51486783 0.03496335
0.33359956 0.66582196 0.70502300
0.33530654 0.16076393 0.70936132
0.66326137 0.84731909 0.37460453
0.83244837 0.16724289 0.72263239
0.17038875 0.84333910 0.37341860
0.82621876 0.64581338 0.71175556
0.16737822 0.31978906 0.38652857
0.99103856 0.99666224 0.04119505
0.66904611 0.32754633 0.35405142
0.50159096 0.00266366 0.05206197
0.49545085 0.49749106 0.04398914
0.00877639 0.50787622 0.02888154
0.33599724 0.66254153 0.70490756
0.32807204 0.16611494 0.70804130
0.66691424 0.84372720 0.37388610
0.83970413 0.16652487 0.72755534
0.17119654 0.83466312 0.37550146
0.81463769 0.64476325 0.71230922
0.16818400 0.32492122 0.38597138
0.99557024 0.99892109 0.03674399
0.66954020 0.32895550 0.35680522
0.50841282 0.01234544 0.05675148
0.49438553 0.50193133 0.04304976
0.00585610 0.49647731 0.02660132
0.34618684 0.66317515 0.70856883
0.33078718 0.16309993 0.70404453
0.67557203 0.83622093 0.36966305
0.82857844 0.16484787 0.71818089
0.17095144 0.82956278 0.38210071
0.81437735 0.65263724 0.71465200
0.16564732 0.33011661 0.38146091
0.00729744 0.01103875 0.03528371
0.67121022 0.32792355 0.36374351
0.51133293 0.00876860 0.05438751
0.50038287 0.50700593 0.04909434
0.00292774 0.49936168 0.02218536
0.34856743 0.67162255 0.70816124
0.33177162 0.15885371 0.70207403
0.68029052 0.82747168 0.36544224
0.82029605 0.16789972 0.70912991
0.17341684 0.83611485 0.38215478
0.82123782 0.65787958 0.71693635
0.16389382 0.33234418 0.38181620
0.01231012 0.02088808 0.03329166
0.67403120 0.32912002 0.36480587
0.50716786 0.00194084 0.05333864
0.49779247 0.50325060 0.05644434
0.00101916 0.50182940 0.02063363
0.34048061 0.68069017 0.70349094
0.32571454 0.15864909 0.70056626
0.67547501 0.82510887 0.36565471
0.83261144 0.17562155 0.71099744
0.17566712 0.84018635 0.37577018
0.82538954 0.65544624 0.71916650
0.15841302 0.33175468 0.38663813
0.00919978 0.02128937 0.02936206
0.67512509 0.33556660 0.36267096
0.50603646 0.01141771 0.05361517
0.48388959 0.49105399 0.05749196
0.00113179 0.50288968 0.02177759
0.33034090 0.68083114 0.69826463
0.32267657 0.16380755 0.70207252
0.67049671 0.82739482 0.36662385
0.83968127 0.16999491 0.71881716
0.17269653 0.83109059 0.37132883
0.82861949 0.65766085 0.71867447
0.15773524 0.33484042 0.38778743
0.00213289 0.01073149 0.02948638
0.67365274 0.34053854 0.36575821
0.51023635 0.02605449 0.05020723
0.47691900 0.48535882 0.05260199
0.00234717 0.50623025 0.02590500
0.33163443 0.67003241 0.69661912
0.32568922 0.16556419 0.70190802
0.67592057 0.83195014 0.36692454
0.83111289 0.15223904 0.71878389
0.16005050 0.81508729 0.37816973
0.83130348 0.66981918 0.71050137
0.16041234 0.33973484 0.38062793
0.00063224 0.99880974 0.03582723
0.67352202 0.33631884 0.37721366
0.50568188 0.02277376 0.04854478
0.48348620 0.49209924 0.04629621
0.00639773 0.51114490 0.03863456
0.34641135 0.66689622 0.69421811
0.33049051 0.16215049 0.70045621
0.68782519 0.83347203 0.36792917
0.82301560 0.14620596 0.70976862
0.15380613 0.81279058 0.38405685
0.82863900 0.67601414 0.70205415
0.16207753 0.34054185 0.37173211
0.00848932 0.99636492 0.04129944
0.67266779 0.32853235 0.38718909
0.49377233 0.00771160 0.04802449
0.50039229 0.50325248 0.04354004
0.01064848 0.51395501 0.05137540
0.34892120 0.66787544 0.68980666
0.33552344 0.16418587 0.70110420
0.68497172 0.82653939 0.36977470
0.82745045 0.15924746 0.70680768
0.15883810 0.82154745 0.38261761
0.82476545 0.67451881 0.70081665
0.16721914 0.33970997 0.36960400
0.01276695 0.00165488 0.04337899
0.66567316 0.31860618 0.38323858
0.48744117 0.99482532 0.04358135
0.51035127 0.50643529 0.04529329
0.00829290 0.50669834 0.05126172
0.32995744 0.65803160 0.69615401
0.34297352 0.17604106 0.70214791
0.67348296 0.82618182 0.37208646
0.83629052 0.17364501 0.70854571
0.16751434 0.83487186 0.38017790
0.82291377 0.67401299 0.70287418
0.17267369 0.33817026 0.37313897
0.00547199 0.00513057 0.04123722
0.66237438 0.32111837 0.37647080
0.48849970 0.99355742 0.03518259
0.50125957 0.49491577 0.04668954
0.00043119 0.49738085 0.04532478
0.32212032 0.65964030 0.70747775
0.34778365 0.18352236 0.70482348
0.67174139 0.83571886 0.37305416
0.83830105 0.17246505 0.71103881
0.17003088 0.84180657 0.37758263
0.82421941 0.66875249 0.70337511
0.16538820 0.33241331 0.37079100
0.99553476 0.00017536 0.03875563
0.66294605 0.33416663 0.37868718
0.48983110 0.99472312 0.03037663
0.48956080 0.48583888 0.04463549
0.99462299 0.49864444 0.04287640
0.33824583 0.66975415 0.71613531
0.34192097 0.17344687 0.70804837
0.67540940 0.84057678 0.37428765
0.83730563 0.16661878 0.70513415
0.16769746 0.84171361 0.37507087
0.82921707 0.66457375 0.70372167
0.15343755 0.33108321 0.36574210
0.99648244 0.99021377 0.04425574
0.66316052 0.34141101 0.38637908
0.49142235 0.99089541 0.03500127
0.48842019 0.49107798 0.04340615
0.99863070 0.50539589 0.04343484
0.35487865 0.67092274 0.71826783
0.33767039 0.16272376 0.70773121
0.67235298 0.83506538 0.37565596
0.83986585 0.17105809 0.69731120
0.16928794 0.84111405 0.37415876
0.83419867 0.67107638 0.70839583
0.14980441 0.33235527 0.36582458
0.00221370 0.98911247 0.05100648
0.65913365 0.33851180 0.38758327
0.49566167 0.98896899 0.03987273
0.49940765 0.50177159 0.04285543
0.00483680 0.50596754 0.04200140
0.34521381 0.66836578 0.71840840
0.33682943 0.16604342 0.70640984
0.66375782 0.82855555 0.37471686
0.84256857 0.17980162 0.69873597
0.17628005 0.83986479 0.37370422
0.84071815 0.67844970 0.70805410
0.15939208 0.33441491 0.37140840
0.00139925 0.99832126 0.04901509
0.65885753 0.33479853 0.37854513
0.49963552 0.99264672 0.03932179
0.50939432 0.50332688 0.03981376
0.00516013 0.49833380 0.04117088
0.32234116 0.66393542 0.71660702
0.33444548 0.17209301 0.70773810
0.65937663 0.83261397 0.37626841
0.83984428 0.17757617 0.70494614
0.17937900 0.83690124 0.37214308
0.84628113 0.68208904 0.70495121
0.17148887 0.33303138 0.37528604
0.99676438 0.00135352 0.04647706
0.66392683 0.33332560 0.36924494
0.49647883 0.99612720 0.03555321
0.50696213 0.49631340 0.03659304
0.00211335 0.49396660 0.03916663
0.31449867 0.66066251 0.71169798
0.33249792 0.17097208 0.71199018
0.66260974 0.84181621 0.38012275
0.83762605 0.16644338 0.70731393
0.17150350 0.83127688 0.36820667
0.84531051 0.67915241 0.70416428
0.17525371 0.33374760 0.37541979
0.99305058 0.99816087 0.04749384
0.67152449 0.33482636 0.36996321
0.49645249 0.00088763 0.03619645
0.50270417 0.49573991 0.03739809
0.99723121 0.49481601 0.03865145
0.32610474 0.66106678 0.71133487
0.33135262 0.16217401 0.71547462
0.66548904 0.84366918 0.38065350
0.83737098 0.16087546 0.70577819
0.16672205 0.83086070 0.36770025
0.84231356 0.67313449 0.70387387
0.17444679 0.34118878 0.37198081
0.99059634 0.99259962 0.04891944
0.66673074 0.33183917 0.37593077
0.49928857 0.00298432 0.04206623
0.50734825 0.50322717 0.03978664
0.99324978 0.49448939 0.04390428
0.33584098 0.66121358 0.71347842
0.32846679 0.15681543 0.71535909
0.66431319 0.83729868 0.37996042
0.83841673 0.16547159 0.70443266
0.17168775 0.83587485 0.37271358
0.84397572 0.67088859 0.70355350
0.17380722 0.34553155 0.37059103
0.99166177 0.99142017 0.04545421
0.65118066 0.32438453 0.37726986
0.50279169 0.00074399 0.04375977
0.51511599 0.50808124 0.03993249
0.99354673 0.49378790 0.04737814
0.33106861 0.65986052 0.71269691
0.32888826 0.16519332 0.71266942
0.65880731 0.82920973 0.37853489
0.83932201 0.17354652 0.70477510
0.17295302 0.83505906 0.37593583
0.84089722 0.66734987 0.70200817
0.17437003 0.34264378 0.37297097
0.99425325 0.99827596 0.04201132
0.65158244 0.32311677 0.37345425
0.50803422 0.00117506 0.03887047
0.51572973 0.50331747 0.03967512
0.99557315 0.49496365 0.04476722
0.32000873 0.65758467 0.70790452
0.33131689 0.17420500 0.71104226
0.65407536 0.82774689 0.37742719
0.83555293 0.17413483 0.70658848
0.17102180 0.83448450 0.37481425
0.83465645 0.66425286 0.70195694
0.17588859 0.33628083 0.37486673
0.99690953 0.00280371 0.04194533
0.66346364 0.32845108 0.37305055
0.50751072 0.00531302 0.03383622
0.50676687 0.49671400 0.03801762
0.99767221 0.49928374 0.04233805
0.32287315 0.66290673 0.70628589
0.33087903 0.17039477 0.70973376
0.65795775 0.83030198 0.37687423
0.83172752 0.16790904 0.70887073
0.17090432 0.83928019 0.37351755
0.83239799 0.66169968 0.70391317
0.17216876 0.33082046 0.37367481
0.99525524 0.99800910 0.04310781
0.67008177 0.33642240 0.38024966
0.50444400 0.00696873 0.03553598
0.50014330 0.50225609 0.03484998
0.99764549 0.50131288 0.04543882
0.33549157 0.66910984 0.70774948
0.32850415 0.15778688 0.70862484
0.66397451 0.83007277 0.37695350
0.83326226 0.16489029 0.70892806
0.17393058 0.84214094 0.37162129
0.83421715 0.65842638 0.70670470
0.16725641 0.33092121 0.37021411
0.99621716 0.99517029 0.04178868
0.66502551 0.33791537 0.38463570
0.50789108 0.00599727 0.04182226
0.50152944 0.51348952 0.03759760
0.99743231 0.50145795 0.04933478
0.33982404 0.67175376 0.70946187
0.32667567 0.15370721 0.70763445
0.66672423 0.82990109 0.37773390
0.83643899 0.16754982 0.70673861
0.17139692 0.83885800 0.37196577
0.83664558 0.66029140 0.70762884
0.17082408 0.33463477 0.37123579
0.00397911 0.00239164 0.03774304
0.65956106 0.33274729 0.38070460
0.51011360 0.00194675 0.04509144
0.50267865 0.51167237 0.03948289
0.00076470 0.50329157 0.04761033
0.33252416 0.67288430 0.70861004
0.32890671 0.16544042 0.70838213
0.66946609 0.83187476 0.37614010
0.83610463 0.17058971 0.70557822
0.15995917 0.82851757 0.37273652
0.83481108 0.66454911 0.70658828
0.17419930 0.33333965 0.37400082
0.00835326 0.01110797 0.03797598
0.66843704 0.33306402 0.37402066
0.50698221 0.00012162 0.04512849
0.49676486 0.49751806 0.03645053
0.00442378 0.50553442 0.04440021
0.32830051 0.67307700 0.70682639
0.33487955 0.17638356 0.71015797
0.67066525 0.83387316 0.37625636
0.83114186 0.16660126 0.70630469
0.15375568 0.82173784 0.37069438
0.82826314 0.66449406 0.70887374
0.17111897 0.32729174 0.37354681
0.00591638 0.01104487 0.04183941
0.67954729 0.33476992 0.37158038
0.50058303 0.00125454 0.04275742
0.49223577 0.49190435 0.03618090
0.00478245 0.50440395 0.04347292
0.33724611 0.67586088 0.70777576
0.33600769 0.17259198 0.71056614
0.67308648 0.83351558 0.37771674
0.83094242 0.16148783 0.70720932
0.15608141 0.82535011 0.37148498
0.82559252 0.66337139 0.71304064
0.16568273 0.32693366 0.37486695
0.00037742 0.00234003 0.04231545
0.67896908 0.33474860 0.37279607
0.49729140 0.00091823 0.03948626
0.49439557 0.50125987 0.04072220
0.00045264 0.50003680 0.04592526
0.34488909 0.67554148 0.70854654
0.33615171 0.16488494 0.70952476
0.67459701 0.83365875 0.37457938
0.83283778 0.16408892 0.70622119
0.16510910 0.83231550 0.37589297
0.82999491 0.66072489 0.71497574
0.16146066 0.33343175 0.37653248
0.99786577 0.99482160 0.04039781
0.66835822 0.33184365 0.37191011
0.49998532 0.99793940 0.04088087
0.49625900 0.50653302 0.04230896
0.99527503 0.49682960 0.04959967
0.34211198 0.67118304 0.70616016
0.33704780 0.16841113 0.70579302
0.67334086 0.83534909 0.37224865
0.83094436 0.16902455 0.70395915
0.17129694 0.83425024 0.37930139
0.83163937 0.65880117 0.71329799
0.16051743 0.33525724 0.37775457
0.00716328 0.00150899 0.04116699
0.66229892 0.33100789 0.36928667
0.50441106 0.99645799 0.04368527
0.49138074 0.49570434 0.03984486
0.99753022 0.49633142 0.04552598
0.33505539 0.66815707 0.70346051
0.33691821 0.18066049 0.70287792
0.67038765 0.83519367 0.37284476
0.82854442 0.17105742 0.70564214
0.16424641 0.83099768 0.37838098
0.82566854 0.66277771 0.71035297
0.15983817 0.32743691 0.38110439
0.01638723 0.01253567 0.04545464
0.67219524 0.33518578 0.36830991
0.50222645 0.99536358 0.04129432
0.48631469 0.48384598 0.04049224
0.00102487 0.50077631 0.03725331
0.33343318 0.66903378 0.70431808
0.33688351 0.18486618 0.70353814
0.66519112 0.83406364 0.37000744
0.82684056 0.17153292 0.71385682
0.16279257 0.83417893 0.37610600
0.82120731 0.66789874 0.70914586
0.16073608 0.32240657 0.38131119
0.01188971 0.00826669 0.04702347
0.68276813 0.33863388 0.37262657
0.49127311 0.99180211 0.03977051
0.48800807 0.49031172 0.04572295
0.99993301 0.50760227 0.03346358
0.34051895 0.67325003 0.70564158
0.33319984 0.17250604 0.70215184
0.66726598 0.83432525 0.36699698
0.83149768 0.17051447 0.71787892
0.17036274 0.84384842 0.37742105
0.83216241 0.67302490 0.71304096
0.16193522 0.32310895 0.38178935
0.00134857 0.99506271 0.04320881
0.67681389 0.34080033 0.37617879
0.48213536 0.98814889 0.04351734
0.49833155 0.50680317 0.04911992
0.99822791 0.50532248 0.03091149
0.34597701 0.67159028 0.70177953
0.33572944 0.15900552 0.69976146
0.67114091 0.83409358 0.36482965
0.83988064 0.17008462 0.71227856
0.16858291 0.84071865 0.38073407
0.84967509 0.67166118 0.72041831
0.16229991 0.33061086 0.38347020
0.99980588 0.99757120 0.03411305
0.66669515 0.34255861 0.37221064
0.48490989 0.98707000 0.04989319
0.50736124 0.51153731 0.04983049
0.99736244 0.49716822 0.02785199
0.34014733 0.66499137 0.69788326
0.34264304 0.16404443 0.69950033
0.66872930 0.83674745 0.36461900
0.83690142 0.16880114 0.70825969
0.15840232 0.82778029 0.38145706
0.84964135 0.67038602 0.72064758
0.16373238 0.33738274 0.38366594
0.00632542 0.01057168 0.02852294
0.66232942 0.34215344 0.36551471
0.49036516 0.98680781 0.05659137
0.50188430 0.49781031 0.04578238
0.99571558 0.49058458 0.02711526
0.33738919 0.66466652 0.70101546
0.34457229 0.17867956 0.70143953
0.66797716 0.84038911 0.36774114
0.82601964 0.15963248 0.71253696
0.15376743 0.82174249 0.38232438
0.83738370 0.67812716 0.71434815
0.16419196 0.33744879 0.38425807
0.00447216 0.00530796 0.03241002
0.66853446 0.34330711 0.36527140
0.48739841 0.98668911 0.05537200
0.49349457 0.48674426 0.04489522
0.99752098 0.49395610 0.02520796
0.34240096 0.67006093 0.70973323
0.34811050 0.17742393 0.69928843
0.66317658 0.83581834 0.36953190
0.82075764 0.15361778 0.72068945
0.16630327 0.82907130 0.38158742
0.83409846 0.68487789 0.71166106
0.16438671 0.34080541 0.38261805
0.99671037 0.98990940 0.03691560
0.67120013 0.33509390 0.37087062
0.48908117 0.99849876 0.04600728
0.49689094 0.49251432 0.05030419
0.00240378 0.49953534 0.02732627
0.34328283 0.67221084 0.71434549
0.34747943 0.16188463 0.69886991
0.65848820 0.83094680 0.37030810
0.82479891 0.14971768 0.72288368
0.18335625 0.84373815 0.38208151
0.84420675 0.68527232 0.70926978
0.16247192 0.34224642 0.37917568
0.99681404 0.98454797 0.03204264
0.66480011 0.32447700 0.37481637
0.49789250 0.01469277 0.04114297
0.50389100 0.50248108 0.05285996
0.00846577 0.49779529 0.03653740
0.33639292 0.66809882 0.70939228
0.34063750 0.15801375 0.70693007
0.66302909 0.83498665 0.36888595
0.83293307 0.14654134 0.71705628
0.18285417 0.85031861 0.38359434
0.84777913 0.67670006 0.70582692
0.15365526 0.33743017 0.37421063
0.00324908 0.99285906 0.02683830
0.66086338 0.32393856 0.37854027
0.49936486 0.01611651 0.04078862
0.50978410 0.50492277 0.04777918
0.00960838 0.49613436 0.04231151
0.32919576 0.66088634 0.70628759
0.34231048 0.16825492 0.70580726
0.66376910 0.83809602 0.36833018
0.83906721 0.15407980 0.70888477
0.16998909 0.84332610 0.38030723
0.83297647 0.66595421 0.69937184
0.14493622 0.33013143 0.36804527
0.00567091 0.00555064 0.03139416
0.66638824 0.33262750 0.37800278
0.49640598 0.00964066 0.04539727
0.50146451 0.49407471 0.04662472
0.00722614 0.50064091 0.04044793
0.32552388 0.65438792 0.70959444
0.34189521 0.17508612 0.70061086
0.66679895 0.83594120 0.37082878
0.83800627 0.16096709 0.71004274
0.15617810 0.83844007 0.37719859
0.82059994 0.67020074 0.69197148
0.15049172 0.32412784 0.36818399
0.99376568 0.00157474 0.04096066
0.67770379 0.34114677 0.37608430
0.49408191 0.00807059 0.04612769
0.49273536 0.49350374 0.04365537
0.00356890 0.50808846 0.03218620
0.33016040 0.65713852 0.71704296
0.33547248 0.16657803 0.70566801
0.67500447 0.83282310 0.37129366
0.83626137 0.16570992 0.71763087
0.15328151 0.83546892 0.37414864
0.82022532 0.67398693 0.69757940
0.16379427 0.32733065 0.36817044
0.98573599 0.98736678 0.04888821
0.68479949 0.34522929 0.37442308
0.49728937 0.01319135 0.03871394
0.50008636 0.50930385 0.04109956
0.00613041 0.51221646 0.03283659
0.33531730 0.66355477 0.71844718
0.33375628 0.16189786 0.71219095
0.67961807 0.83312066 0.37164975
0.84464680 0.16815962 0.71552235
0.15963098 0.83126371 0.37190069
0.82336416 0.65930608 0.71085488
0.16295999 0.33087700 0.36296126
0.99865095 0.99422174 0.04980861
0.67370795 0.33671231 0.37552911
0.50614979 0.01430389 0.03222169
0.51282051 0.51749536 0.04403737
0.00651287 0.50393997 0.03848662
0.33207546 0.66136862 0.71180015
0.33271304 0.16443671 0.71392985
0.67755485 0.83276629 0.37411677
0.85185054 0.16663704 0.70944141
0.15833519 0.82380931 0.37359689
0.82624437 0.64243337 0.71866248
0.16482560 0.33813873 0.36260766
0.01225389 0.01267656 0.04681519
0.66082918 0.32498070 0.38108967
0.50722972 0.00446753 0.03231312
0.51883181 0.51535868 0.04266245
0.00346515 0.50249338 0.04107917
0.32663811 0.65720641 0.70606109
0.33225109 0.16625264 0.71116137
0.66955653 0.83131466 0.37518461
0.84388776 0.17206963 0.70942482
0.15237739 0.81548886 0.37342345
0.81899234 0.63714293 0.71434055
0.17374813 0.34974852 0.37031582
0.00923516 0.01754440 0.04807348
0.65753748 0.32432881 0.38133072
0.50572130 0.99806050 0.03526214
0.50731007 0.50532689 0.03395851
0.99845058 0.50934458 0.04267117
0.32825125 0.66156541 0.70533331
0.33366669 0.16550068 0.70988272
0.66132321 0.82959001 0.37653136
0.83068694 0.17282291 0.70607796
0.15854870 0.81789074 0.37161972
0.81603808 0.65386153 0.70454677
0.17602659 0.35052494 0.37512187
0.00183303 0.00391477 0.05050473
0.66057861 0.33054102 0.37522024
0.50528985 0.00287379 0.03389625
0.49396969 0.49881486 0.03200867
0.99899084 0.51283917 0.04159211
0.33419694 0.67057715 0.70953571
0.33575840 0.16448457 0.71379849
0.65701661 0.82838555 0.37848043
0.82622429 0.16750891 0.70198984
0.17789582 0.83190706 0.36755867
0.82809070 0.67373475 0.70146246
0.17204459 0.34161155 0.37290190
0.99537072 0.98434476 0.05066011
0.66450136 0.32768269 0.37376281
0.50426250 0.00960496 0.02930757
0.49747155 0.50107158 0.04197109
0.00102030 0.51230331 0.04368374
0.33559291 0.67375377 0.71392215
0.33311632 0.16606831 0.71579208
0.66038821 0.83422625 0.37968556
0.83713542 0.17097795 0.70015042
0.19247578 0.84353210 0.36624851
0.84443453 0.67543579 0.70388857
0.16900667 0.33290808 0.36865883
0.99484460 0.98340201 0.04929252
0.66467207 0.31987758 0.37906033
0.50711318 0.01009101 0.02971716
0.50363602 0.50185311 0.05102787
0.00056480 0.50524035 0.04838106
0.32760474 0.66563786 0.71145602
0.32603229 0.16882190 0.71380144
0.66745430 0.83944807 0.38105127
0.84899063 0.17599425 0.70091234
0.18621055 0.84416449 0.36926594
0.84685254 0.66947582 0.70596885
0.17163642 0.33213390 0.36688135
0.99837303 0.99613109 0.04514538
0.66224186 0.32123433 0.38246414
0.51036201 0.00308097 0.03474214
0.50004314 0.49966798 0.04671188
0.99631557 0.49979111 0.04939787
0.32499007 0.65894118 0.70841495
0.32261752 0.16744178 0.71221475
0.66939836 0.83882465 0.38046510
0.84718799 0.17666665 0.70343786
0.16822480 0.83496987 0.37277228
0.83789984 0.66874552 0.70399427
0.17689434 0.33890587 0.36749922
0.99996910 0.00592914 0.04049500
0.66102038 0.32743596 0.38038397
0.50761483 0.99711635 0.04051908
0.49824458 0.50269923 0.03724475
0.98894128 0.50020620 0.04621336
0.33029170 0.66229983 0.70988356
0.32194465 0.16390307 0.71122052
0.66584573 0.83554960 0.37952750
0.83498949 0.17264064 0.70474685
0.16871096 0.83444315 0.37377372
0.83705183 0.67572648 0.69959290
0.17792513 0.34111956 0.37140033
0.99839882 0.00596879 0.04048039
0.65900498 0.32650872 0.37481738
0.50276122 0.99600419 0.04118128
0.49760039 0.50386669 0.03429971
0.98751618 0.49812456 0.04128184
0.33433181 0.66974343 0.71340213
0.32252774 0.16369349 0.71085465
0.66338234 0.83209086 0.37863242
0.82772024 0.16902653 0.70356818
0.17967558 0.84244510 0.37444509
0.84912835 0.68200567 0.70190392
0.17428192 0.33433106 0.37559354
0.99415844 0.99450686 0.04115905
0.66045364 0.32633817 0.36994348
0.50104227 0.99642231 0.03791480
0.50170900 0.50304248 0.03873319
0.99221280 0.49355949 0.04023800
0.33463035 0.67362876 0.71558468
0.32926065 0.16773140 0.70944795
0.66285258 0.83055908 0.37974869
0.83554627 0.16900693 0.70496474
0.18068989 0.84380065 0.37611104
0.85423423 0.67503262 0.70624941
0.17085638 0.32943981 0.37438337
0.99260667 0.99022973 0.04221151
0.66471554 0.33254616 0.37080516
0.50503574 0.99782830 0.04077224
0.50478085 0.50066765 0.04230533
0.99292970 0.48732735 0.04395800
0.33258088 0.67146614 0.71292924
0.33370690 0.16943634 0.70688323
0.66379356 0.83002989 0.38194164
0.83814031 0.16612562 0.70839722
0.17029011 0.83792492 0.37600569
0.84553886 0.66347944 0.70811053
0.16820079 0.33124541 0.37279968
0.99727999 0.00331320 0.04157051
0.66741332 0.33985380 0.37435473
0.50502858 0.00063694 0.04845908
0.50087803 0.49686852 0.03885530
0.99148194 0.48782143 0.04661957
0.33413661 0.66864784 0.70656753
0.33222843 0.16495219 0.70819849
0.66724330 0.83104516 0.37858132
0.82603009 0.16072747 0.70979799
0.15973823 0.83227769 0.37341136
0.83433345 0.66304214 0.70671091
0.16734841 0.33510412 0.37356866
0.00093060 0.00985925 0.04078201
0.66921574 0.34455659 0.37483931
0.50102048 0.00182070 0.05196338
0.49582429 0.49619046 0.03365103
0.99374747 0.49824954 0.04625654
0.33879894 0.66923906 0.70372641
0.33437249 0.16039720 0.71066918
0.66501422 0.83307271 0.37419377
0.82085023 0.16107085 0.71003728
0.16361752 0.83494336 0.37407346
0.83125036 0.67110942 0.70446844
0.16537001 0.33021039 0.37398391
0.00083845 0.00314671 0.04044914
0.67043227 0.34109250 0.37329820
0.50202889 0.00208206 0.04831282
0.49316700 0.49753665 0.03410118
0.99817292 0.50390103 0.04373424
0.33853072 0.66899479 0.70544919
0.33943172 0.16426570 0.71192764
0.66109098 0.83163929 0.37327582
0.83049034 0.16522077 0.71001469
0.16934066 0.83957861 0.37465047
0.83595301 0.67550216 0.70656390
0.16405852 0.32156326 0.37562944
0.99939147 0.99324820 0.03967057
0.67605284 0.34069739 0.37389609
0.50420225 0.00110093 0.04006993
0.49773085 0.50065913 0.03916015
0.00155427 0.50115510 0.04171041
0.33199630 0.66611292 0.70809913
0.34124142 0.17366095 0.71108669
0.66344536 0.83178892 0.37296011
0.83782597 0.17004186 0.70840744
0.16427403 0.83821713 0.37193104
0.83619581 0.66792942 0.71263723
0.16498079 0.32190477 0.37648496
0.00238788 0.99533295 0.04031117
0.67849539 0.34499697 0.37587324
0.50209049 0.00058265 0.03970940
0.50187183 0.50130167 0.04228058
0.00416936 0.49694670 0.04363881
0.33104720 0.66359345 0.70560238
0.33891313 0.17435957 0.70783315
0.67055806 0.83785800 0.37323561
0.83351489 0.17092809 0.70617990
0.15365311 0.83190062 0.37241513
0.82737055 0.65868959 0.71661253
0.16519185 0.33352269 0.37640281
0.00997918 0.00786425 0.03978464
0.67266247 0.34264163 0.37791176
0.49860086 0.99827289 0.04290445
0.49875498 0.50061576 0.03807873
0.00650209 0.49844937 0.04302263
0.33800962 0.66436967 0.70161632
0.33409450 0.16367719 0.70393413
0.67350215 0.83975645 0.37055968
0.82523313 0.16705490 0.70726888
0.14985193 0.82769353 0.37243773
0.82003727 0.65722633 0.71437423
0.16650543 0.34524157 0.37757323
0.01229127 0.00929062 0.03945054
0.66775770 0.33555970 0.37568563
0.49355519 0.99299856 0.04198505
0.50077149 0.50665474 0.03804415
0.00794143 0.50815185 0.03893699
0.34104214 0.66820265 0.70385833
0.33243935 0.15643695 0.70181941
0.66979862 0.83685798 0.36943273
0.82165864 0.16534907 0.70933727
0.16496615 0.83226602 0.37351161
0.81953088 0.65973084 0.71049176
0.16838221 0.34474704 0.38150494
0.00701818 0.00174984 0.04027655
0.66468354 0.32697312 0.37145341
0.49407214 0.99296422 0.03791316
0.50459330 0.50898683 0.04376226
0.00905606 0.50994153 0.03416830
0.33803660 0.67299798 0.70889933
0.33586179 0.16177711 0.70425617
0.66667629 0.83226433 0.37202978
0.82846525 0.16923494 0.70721117
0.17350430 0.83080855 0.37555853
0.82231540 0.65986017 0.71409735
0.16533926 0.33165891 0.38729200
0.00216728 0.99895303 0.03809347
0.66679523 0.32818522 0.36868973
0.50033330 0.99731354 0.03800334
0.50245114 0.50063183 0.04829397
0.01010664 0.50122622 0.03216287
0.33586453 0.67289307 0.71037273
0.34291457 0.17218527 0.70708309
0.66723003 0.82859329 0.37289885
0.83882003 0.16877836 0.70480002
0.16146415 0.82321053 0.37207081
0.82393240 0.65824648 0.71982473
0.15935455 0.32071818 0.38774466
0.00424756 0.00442915 0.03615615
0.67007134 0.33645254 0.36894386
0.50111139 0.00066263 0.04797366
0.49687121 0.49160087 0.05070288
0.00730397 0.49579472 0.03687581
0.33803943 0.67190260 0.70725700
0.33972830 0.17063703 0.70384263
0.67008616 0.82922609 0.37183277
0.84115315 0.16405723 0.71032920
0.15587228 0.82343215 0.37631507
0.82306672 0.66293053 0.71800927
0.15610787 0.32717172 0.38372630
0.00517374 0.01290266 0.03387993
0.66836294 0.33593536 0.37204015
0.49834336 0.00690916 0.05506167
0.49391725 0.49501589 0.04619768
0.00693250 0.49941258 0.03735174
0.34125642 0.67295423 0.70389292
0.32678795 0.15568143 0.70209527
0.67582422 0.83155907 0.36670031
0.83959898 0.16614184 0.71751940
0.16226479 0.82944494 0.38320476
0.82594896 0.67557675 0.71123726
0.16083921 0.34245457 0.37781387
0.00126993 0.00505323 0.03345628
0.66546649 0.33185029 0.37058047
0.49546867 0.00932842 0.04942664
0.50357301 0.50793391 0.04358332
0.00836327 0.51054534 0.03196336
0.33545095 0.67074161 0.70746220
0.33076856 0.15830742 0.70154795
0.67887779 0.83532397 0.36946669
0.83867009 0.16911805 0.71621743
0.17362169 0.83586391 0.38326743
0.82749572 0.67881936 0.70746886
0.16665726 0.34042768 0.37464604
0.00047335 0.99433070 0.03787405
0.66765430 0.33057469 0.36707087
0.49617749 0.00780958 0.04077351
0.51040803 0.51163996 0.04477081
0.00312113 0.50637379 0.02902090
0.32711808 0.66534866 0.71034467
0.34020682 0.17445430 0.70019186
0.67689678 0.83758793 0.38073288
0.84000584 0.16767040 0.70976892
0.17696688 0.83504495 0.38100346
0.83170303 0.67397826 0.70919839
0.16220239 0.32756215 0.37710273
0.00155877 0.99638573 0.04223352
0.67471520 0.33388871 0.36864114
0.49800968 0.00496445 0.04026378
0.50147094 0.50386198 0.04354030
0.99510450 0.48843486 0.03277283
0.32735317 0.66391620 0.70871162
0.33667245 0.17973802 0.69879625
0.67524773 0.83229868 0.38007596
0.84526649 0.17268000 0.70854548
0.16681234 0.83321797 0.38031594
0.83943069 0.66945083 0.71093696
0.15669898 0.33219250 0.37483904
0.00031961 0.00012781 0.04542362
0.66893497 0.33288143 0.37482115
0.49178430 0.00082743 0.04877158
0.49622330 0.49811420 0.04498053
0.99400332 0.48522536 0.04066426
0.33721528 0.66693280 0.70611085
0.33148906 0.17026240 0.69821374
0.67113673 0.83118815 0.37236850
0.84775802 0.18141545 0.71174093
0.15740419 0.83530108 0.38270531
0.83808352 0.66479312 0.70636533
0.15812700 0.34972936 0.36930282
0.99369580 0.99859097 0.04276831
0.65164454 0.31441466 0.38659725
0.48701115 0.00163064 0.05193101
0.49814105 0.50063040 0.04256954
0.99965112 0.49826654 0.04205435
0.35029989 0.67217389 0.70540942
0.33446054 0.15956822 0.70147611
0.66370193 0.83158106 0.36506967
0.83713450 0.18339207 0.71486806
0.16154140 0.82993443 0.37682926
0.83239721 0.66029530 0.69871362
0.16146474 0.34983705 0.37058693
0.99103772 0.99332871 0.04154120
0.64918480 0.30820327 0.38313027
0.48547967 0.00258784 0.04462076
0.50269377 0.50648351 0.03963248
0.00373810 0.51159936 0.04034237
0.35115125 0.67286052 0.71131091
0.34408186 0.16473914 0.70968826
0.65583369 0.82709689 0.36270378
0.82223406 0.17747198 0.71411639
0.17753291 0.82505654 0.36880800
0.82973507 0.65682600 0.69458408
0.16832947 0.33499068 0.37317934
0.99659840 0.99549676 0.04588152
0.65889338 0.32353370 0.37413993
0.49016533 0.00227596 0.03654841
0.50316961 0.49715936 0.04207321
0.99753837 0.50092231 0.04558386
0.34021654 0.66843644 0.71419731
0.34909416 0.17770942 0.71467297
0.65580297 0.82778077 0.36652010
0.82430670 0.17336129 0.71113748
0.18976904 0.83457605 0.37775580
0.83791695 0.66145490 0.69649496
0.17100963 0.31995187 0.37249060
0.99948778 0.00458973 0.04875031
0.66823877 0.33316747 0.38229697
0.50103640 0.00453977 0.03417831
0.49318098 0.47791613 0.04267346
0.99786930 0.48386828 0.05401801
0.32761068 0.66174907 0.71052036
0.34312625 0.18026792 0.71578434
0.66661320 0.83035667 0.36561096
0.83755745 0.17127384 0.71182252
0.18637021 0.84388945 0.38135288
0.84834925 0.67459314 0.70318323
0.17031015 0.32639655 0.36435032
0.99432149 0.00344006 0.04721261
0.67583284 0.33849115 0.39216818
0.50615097 0.00535701 0.03338584
0.48490703 0.47384872 0.03760983
0.00821168 0.49601950 0.05777060
0.32517083 0.65713016 0.71381489
0.32701982 0.16490887 0.71090227
0.67522490 0.84038562 0.37286705
0.83800952 0.16024160 0.71019400
0.17136581 0.84354629 0.37344197
0.83875366 0.67950696 0.70447546
0.16581818 0.33992817 0.35893777
0.99124854 0.99821267 0.04307394
0.67011400 0.33694917 0.39233870
0.50420450 0.00681292 0.03002649
0.48530906 0.48455206 0.03125280
0.00472629 0.51628644 0.05480309
0.33357380 0.66270103 0.71678468
0.31585169 0.14925495 0.70865414
0.67198435 0.84658249 0.38523546
0.83606082 0.15775907 0.70817353
0.16132396 0.83048358 0.36571898
0.83477663 0.68146965 0.70351142
0.16308242 0.34543245 0.35958553
0.99343305 0.99843454 0.04173136
0.66080433 0.33524844 0.38343271
0.50293363 0.00505180 0.02427724
0.49458687 0.50267136 0.03330166
0.98872424 0.51724444 0.04660573
0.33368561 0.66854685 0.71766578
0.32179290 0.15937402 0.70907266
0.66654586 0.83889391 0.38899879
0.83924330 0.16734931 0.70499866
0.16219372 0.82205828 0.36448824
0.84245011 0.68340972 0.70179928
0.16834355 0.33213474 0.36079636
0.99703594 0.99648885 0.04759197
0.65937995 0.33678667 0.37156607
0.51100098 0.00185140 0.02520861
0.51181271 0.51746140 0.04527888
0.98607751 0.50635295 0.03946009
0.32515851 0.66546260 0.71856699
0.33296002 0.17780801 0.71548916
0.66134958 0.83270631 0.38396905
0.84175888 0.17409250 0.70143680
0.17215581 0.82946358 0.36931038
0.84637784 0.67741650 0.70267905
0.17254498 0.31782838 0.36576693
0.00226931 0.99631872 0.05338395
0.66992709 0.33564999 0.37272154
0.52223674 0.00480205 0.03063817
0.50775631 0.50992397 0.04240564
0.99878510 0.49772920 0.03689774
0.32251276 0.65920404 0.71860042
0.32582183 0.17696628 0.72537914
0.65824774 0.83076897 0.37613252
0.84096306 0.17175222 0.70202401
0.17096599 0.83342983 0.36999150
0.84113263 0.66795114 0.70391182
0.17148449 0.32178727 0.37217484
0.00445454 0.99578351 0.05387829
0.67884437 0.33372664 0.37998301
0.51712613 0.00375197 0.03570758
0.50224026 0.49824441 0.03156328
0.00859235 0.50411380 0.04540558
0.33099641 0.65822425 0.72038121
0.31829606 0.16791784 0.71932480
0.65734056 0.83068625 0.37378897
0.83477371 0.16633107 0.70671816
0.16423568 0.83390102 0.36852512
0.82844576 0.66215108 0.70496814
0.17431083 0.33358128 0.37413715
0.00205496 0.99624632 0.05152221
0.66900895 0.32949565 0.38074517
0.50715704 0.00186220 0.03626883
0.50688742 0.50049064 0.03005605
0.00348849 0.51202044 0.04868983
0.33840223 0.66215956 0.72115310
0.31861199 0.15639870 0.70929427
0.66179095 0.83518382 0.37861520
0.82846314 0.16739833 0.70786201
0.16919103 0.83735052 0.37124519
0.82345728 0.65537898 0.70561452
0.17879588 0.34012551 0.37048556
0.99615885 0.99739096 0.04871688
0.65830783 0.32870484 0.37180485
0.50924028 0.00521293 0.03525334
0.51175119 0.50727314 0.03676653
0.99233662 0.50818628 0.04017095
0.32407769 0.65951643 0.71691047
0.32046879 0.16057074 0.70964725
0.66141268 0.83550246 0.38189604
0.82843118 0.16688093 0.70265792
0.17354479 0.83663387 0.37191914
0.83202410 0.65812461 0.70382995
0.18101018 0.33593749 0.36986868
0.99358623 0.99812604 0.04832094
0.66308597 0.33458138 0.36600269
0.51760266 0.00573378 0.03952200
0.51124369 0.50873698 0.04127604
0.98828022 0.49535128 0.03546391
0.31083215 0.65614825 0.70976142
0.32568609 0.17396674 0.71510450
0.65550993 0.83178823 0.38303199
0.82959023 0.16318910 0.69874500
0.17542972 0.83735929 0.37167587
0.84063116 0.66643253 0.70776423
0.17822633 0.32504218 0.37344027
0.99906461 0.00248515 0.04375271
0.67037397 0.33305118 0.37064750
0.51695004 0.00327225 0.04637906
0.50647934 0.50069514 0.03720953
0.99228955 0.49082159 0.04153563
0.31864807 0.66329203 0.70544457
0.33017071 0.17729832 0.71355843
0.65803404 0.83052881 0.38210256
0.83120185 0.16341098 0.70290826
0.17165686 0.83759982 0.37253621
0.84528988 0.67047446 0.71127480
0.17110948 0.32288694 0.37666048
0.00262038 0.00584036 0.03814836
0.67226162 0.33331812 0.37590976
0.50909605 0.00247688 0.04808246
0.49981313 0.49805623 0.03586113
0.99650778 0.49916332 0.05124811
0.33262092 0.67240428 0.70480039
0.32928703 0.16751004 0.70324499
0.66746666 0.83256660 0.38023040
0.83081656 0.16480883 0.71006481
0.16402872 0.83579257 0.37169058
0.84258717 0.66780370 0.70857555
0.17480372 0.33958550 0.37453011
0.99887764 0.00667328 0.03595501
0.65907473 0.33123417 0.37316627
0.50314632 0.00170620 0.04518896
0.50119993 0.50458151 0.04132412
0.99726410 0.50379793 0.05476601
0.33782373 0.67379377 0.70512976
0.32810852 0.15924896 0.70017397
0.67292056 0.83726039 0.37875874
0.83107839 0.16743531 0.70993332
0.15960110 0.83179418 0.37153838
0.83940554 0.66568986 0.70645078
0.17620520 0.34926301 0.37136217
0.99639231 0.00680359 0.03583299
0.65166054 0.32591205 0.37169071
0.50450198 0.99986401 0.04304409
0.50646371 0.50694306 0.04424128
0.99498149 0.49922139 0.04877164
0.33335876 0.67066003 0.70367005
0.33198218 0.16503165 0.70857158
0.67032377 0.83540511 0.37659529
0.83434811 0.16803888 0.70385829
0.16036858 0.82669993 0.37008767
0.83668194 0.66681567 0.70731187
0.16789126 0.33635605 0.37360324
0.99987981 0.00463402 0.03830428
0.66269002 0.33153879 0.37247779
0.50633477 0.99729155 0.04502460
0.50057038 0.50067926 0.04121990
0.99565878 0.49633991 0.04390390
0.33354238 0.66793384 0.70233666
0.33902126 0.17270924 0.71576587
0.66612241 0.83220865 0.37489119
0.83283497 0.16273209 0.70395838
0.16377966 0.83122497 0.37103023
0.83332816 0.66828609 0.71011606
0.16353554 0.32374645 0.37641501
0.00633759 0.99997620 0.04014934
0.67485387 0.33958816 0.37644870
0.50003686 0.99658655 0.04601518
0.48920501 0.49312556 0.03624490
0.00257635 0.49957386 0.04300663
0.34300532 0.67239793 0.70494698
0.34236416 0.17040361 0.71153912
0.66822214 0.82934877 0.37113426
0.83171187 0.16219672 0.71135816
0.16203581 0.83807728 0.37741957
0.83151824 0.66858360 0.71366462
0.16703688 0.32752855 0.37628281
0.00789019 0.99686050 0.03885563
0.67286389 0.33908286 0.38003685
0.49036239 0.99615202 0.04132270
0.48734933 0.49321775 0.03802840
0.01060628 0.50525156 0.04311072
0.34679079 0.67540289 0.70780527
0.34024130 0.16347429 0.70071279
0.67280689 0.82877801 0.36970239
0.83216921 0.16736909 0.71516420
0.16098417 0.83727510 0.37999360
0.82924792 0.66673740 0.71464874
0.16819714 0.33495376 0.37625336
0.00347827 0.99956970 0.03788542
0.66478509 0.33761708 0.37569394
0.48782040 0.99511854 0.03829980
0.49103961 0.49844433 0.04288265
0.00961722 0.50572513 0.04085995
0.34207155 0.66857098 0.70638933
0.33656793 0.16039743 0.70041567
0.67510979 0.83607138 0.37424180
0.82742067 0.16897505 0.71100494
0.16525422 0.83285998 0.37483847
0.82671317 0.66433931 0.71402151
0.16132554 0.33392582 0.37867224
0.00336885 0.00574553 0.03780464
0.66288743 0.33810474 0.36971417
0.49246162 0.99549371 0.04139890
0.49382947 0.50051679 0.04236740
0.00226731 0.50077677 0.03458583
0.33593484 0.66155070 0.70441179
0.33974567 0.16793332 0.71173763
0.67532477 0.84004750 0.37565718
0.83041647 0.17231396 0.70797167
0.16720662 0.82881921 0.37044181
0.82679769 0.66414937 0.71268716
0.15450261 0.32920758 0.38106670
0.00918031 0.00812256 0.03967203
0.66980392 0.34062745 0.36962147
0.49665702 0.99613150 0.04522262
0.49502418 0.49651058 0.04172754
0.00369287 0.49821929 0.03371151
0.33316977 0.66161882 0.70391031
0.34683820 0.17485988 0.71660670
0.67346345 0.83384973 0.37141202
0.83736311 0.17548854 0.71050220
0.16786018 0.83039666 0.37328858
0.83120443 0.66698693 0.71151611
0.15664828 0.32720374 0.38156837
0.00851944 0.00390360 0.04008042
0.67350752 0.33831851 0.37186490
0.49737757 0.99913455 0.04395522
0.49446477 0.49309541 0.04555902
0.00811709 0.49901481 0.03667316
0.33558774 0.66919949 0.70612698
0.34278524 0.16798927 0.70824207
0.67096387 0.82819728 0.36736899
0.83700518 0.17474530 0.71511358
0.16881346 0.83549328 0.37755464
0.83657635 0.66793805 0.71106990
0.16364943 0.33555665 0.38180935
0.99901620 0.99821322 0.03750400
0.67122440 0.33418303 0.37018379
0.49601750 0.00236618 0.03935447
0.49700203 0.49600494 0.04892077
0.00465636 0.49907937 0.03658439
0.33532369 0.67377867 0.70796991
0.33429813 0.16083163 0.69989358
0.67041467 0.83208451 0.36845653
0.83160024 0.17232159 0.71432383
0.16744416 0.83664256 0.37652012
0.83338290 0.66351425 0.70913554
0.16848744 0.34938300 0.38217848
0.99267956 0.99757535 0.03803340
0.66651938 0.33133868 0.36652550
0.49624555 0.00253522 0.04060485
0.50471386 0.49933838 0.04736932
0.99834191 0.49796306 0.03699209
0.33084007 0.66836940 0.70605482
0.33211205 0.16427716 0.70415160
0.66964012 0.83838197 0.37611229
0.82885742 0.16845689 0.70869501
0.16898705 0.83585000 0.37496080
0.82742158 0.66510684 0.70825821
0.16647967 0.34869089 0.38094807
0.99529217 0.99946780 0.04015656
0.66550929 0.32832204 0.36754231
0.49755329 0.00253419 0.04639477
0.50803644 0.49724724 0.04141608
0.00029684 0.49989403 0.03648211
0.33228560 0.66290069 0.70641993
0.33403483 0.17135460 0.71145631
0.66628681 0.83448819 0.37822254
0.83126174 0.16403833 0.70675249
0.17315068 0.83581970 0.37727622
0.82664924 0.67320837 0.70882882
0.16070873 0.33389431 0.37540568
0.99976011 0.99407917 0.04268970
0.67207138 0.33431764 0.37440421
0.49943579 0.00433100 0.04799571
0.50613982 0.49727139 0.04174495
0.00821741 0.50465613 0.03498210
0.33387230 0.66057362 0.70942678
0.33523865 0.17243505 0.70588611
0.66268428 0.82504012 0.37071960
0.83370598 0.15865912 0.71022083
0.17086913 0.83828956 0.38229130
0.82818998 0.67948587 0.70877892
0.16107472 0.32431045 0.37021839
0.99857522 0.98542703 0.04355556
0.67560821 0.34132847 0.38220507
0.50090577 0.00673084 0.04446935
0.50858560 0.50459043 0.04902360
0.01103860 0.50411651 0.03495929
0.33029445 0.66084329 0.70982877
0.33009832 0.16415525 0.69190583
0.66232030 0.82358703 0.36855655
0.83594552 0.15885629 0.71062446
0.16307262 0.83884685 0.38231702
0.82943911 0.67798247 0.70917874
0.16703903 0.33008640 0.36955787
0.99256915 0.98540326 0.03949508
0.67134374 0.33651801 0.37985513
0.49890922 0.00453436 0.04001953
0.51437937 0.51252295 0.05040857
0.00674245 0.50203836 0.03733786
0.32933226 0.66576329 0.71102137
0.32314989 0.15880372 0.69128240
0.66621470 0.83287383 0.37620663
0.83902919 0.16668175 0.70516496
0.16181245 0.83261463 0.37520810
0.83018233 0.66751634 0.70770530
0.16595851 0.34089663 0.37175845
0.99044068 0.99695029 0.03874082
0.67047027 0.33207064 0.37134839
0.49509066 0.00107803 0.04037704
0.51799432 0.51236903 0.04420959
0.99978304 0.50176888 0.04345723
0.32900341 0.66509122 0.71125818
0.32172971 0.16188814 0.70645538
0.67045148 0.84501390 0.38144501
0.83786220 0.16615892 0.70476787
0.17044345 0.83153168 0.37205723
0.83286286 0.66362449 0.70376883
0.16053922 0.34006880 0.36993513
0.00006585 0.01038767 0.04364150
0.66970729 0.33037651 0.36787724
0.49556664 0.00028932 0.04204108
0.51331105 0.50369294 0.03798532
0.99695177 0.49936319 0.04827258
0.33230135 0.66337445 0.71361513
0.33110530 0.16857080 0.71917768
0.66238730 0.84146260 0.37344330
0.83629247 0.16666746 0.71221595
0.17721676 0.83630606 0.37723051
0.83919477 0.67094847 0.70226402
0.16250603 0.33454064 0.36552242
0.00858519 0.00926271 0.04784847
0.66603153 0.33074978 0.37623644
0.50500974 0.00240249 0.03657144
0.50410167 0.49482426 0.03709161
0.99957731 0.49536707 0.04767123
0.33546150 0.66990668 0.71579105
0.34288560 0.16988883 0.71808709
0.65491134 0.82434437 0.36449070
0.84209015 0.17463295 0.71566495
0.17503067 0.83937401 0.38004698
0.84104036 0.67723846 0.70494206
0.17551745 0.33387264 0.36403242
0.00024115 0.99786545 0.04929565
0.65936432 0.32961171 0.38548786
0.51357051 0.00837063 0.02780720
0.49681688 0.49480296 0.04086817
0.00081386 0.49556679 0.04763200
0.33127470 0.67542254 0.71361839
0.34072747 0.16535837 0.71303562
0.66125277 0.82264445 0.37065856
0.84363466 0.17299468 0.70827948
0.16775294 0.83500831 0.37677642
0.83331788 0.67336583 0.70776932
0.18746001 0.34129941 0.36673944
0.99620048 0.99856778 0.04943623
0.65298255 0.32034598 0.38521148
0.50888028 0.00969113 0.02602827
0.49543414 0.50060071 0.03730288
0.99632945 0.49805915 0.04901473
0.32436194 0.67081517 0.70975153
0.32740128 0.16071837 0.71628699
0.66731248 0.83664634 0.37952429
0.83183996 0.16480036 0.69730585
0.16171797 0.82026034 0.36841807
0.82789021 0.66391866 0.70614107
0.18943340 0.35458790 0.36803792
0.00748208 0.01090666 0.05072896
0.65618359 0.31621497 0.38466963
0.49983550 0.00271947 0.02999785
0.49621335 0.49891182 0.03104313
0.98909135 0.50146875 0.05216594
0.31928000 0.66168879 0.70176810
0.31894864 0.16205227 0.72238743
0.66703422 0.84902825 0.38268388
0.82538453 0.16123923 0.69495460
0.16530834 0.81462721 0.36286936
0.83871855 0.67126939 0.69714447
0.17668138 0.34696994 0.36739059
0.01611247 0.01709561 0.05394587
0.66212972 0.32434184 0.39050911
0.50635846 0.99832088 0.03331210
0.49018032 0.48951866 0.03454672
0.98831994 0.50282256 0.04787221
0.31735028 0.65538161 0.69746127
0.32910186 0.16809742 0.72142161
0.66551236 0.84636810 0.37781053
0.83038064 0.16439525 0.70134616
0.17535094 0.82632328 0.36228106
0.85273662 0.68660449 0.69238537
0.16717323 0.32676079 0.36650174
0.01263935 0.00635432 0.05625221
0.66052423 0.33480145 0.39404441
0.51319603 0.99572649 0.03045614
0.48403187 0.49285473 0.04492478
0.99454116 0.50558864 0.03723589
0.32178828 0.65882854 0.71073725
0.34280356 0.17379759 0.71218588
0.66287630 0.83436129 0.37065511
0.84058829 0.17176312 0.70464972
0.17011922 0.82996306 0.36240248
0.85570231 0.69082255 0.69636597
0.16479391 0.31562048 0.36871298
0.00492618 0.99404855 0.05437500
0.66328635 0.33791004 0.39099333
0.50729587 0.99328058 0.02758255
0.49435159 0.50500551 0.04517792
0.99321740 0.50512755 0.03760657
0.33476351 0.66239114 0.72213662
0.33782108 0.17050996 0.70409138
0.66462538 0.83258014 0.37195971
0.84936202 0.17655144 0.70010273
0.15570461 0.82228906 0.36360379
0.84803388 0.68218678 0.70413974
0.16647997 0.32273215 0.37378571
0.00148186 0.99679451 0.04886594
0.66822540 0.33179057 0.38203392
0.50507211 0.99401473 0.03075856
0.50840508 0.51486597 0.03714826
0.98058752 0.50028402 0.04471968
0.34742012 0.66065928 0.72103158
0.32728042 0.16762191 0.70765944
0.67110060 0.84288438 0.38337035
0.85020751 0.17640707 0.69615563
0.16280105 0.82536716 0.36863582
0.84301807 0.66773313 0.70502256
0.17275243 0.33623094 0.37850766
0.00456933 0.01053895 0.04317606
0.66360886 0.32383700 0.37829318
0.51001445 0.99879542 0.03801908
0.50336205 0.51252832 0.03329508
0.97534526 0.49582512 0.04354885
0.33702887 0.66101375 0.71414660
0.32242509 0.17054639 0.71345858
0.67251607 0.84308625 0.38959819
0.84245151 0.17410345 0.70015916
0.18062127 0.83469649 0.37171744
0.84341547 0.66167393 0.70008246
0.17683946 0.34211761 0.37785490
0.00618951 0.01771317 0.03925383
0.65575689 0.32557017 0.38014467
0.51637575 0.00276791 0.04178793
0.49395211 0.50478966 0.03712477
0.98228760 0.49602526 0.04024417
0.32308054 0.66555247 0.70905706
0.32271815 0.17136691 0.71392255
0.66207034 0.82663086 0.38752669
0.83572563 0.17516604 0.70773529
0.18705151 0.84044214 0.37389185
0.84171382 0.66815167 0.70206764
0.17539258 0.33489049 0.37580358
0.00084333 0.00670351 0.03535214
0.65423720 0.33290199 0.38076973
0.51754986 0.00121742 0.04073684
0.49566601 0.50012699 0.04021395
0.99122658 0.50145940 0.03762501
0.33371202 0.67439286 0.71637981
0.32780671 0.16939170 0.70700016
0.64403217 0.80856213 0.38333097
0.83447817 0.18049444 0.70696022
0.17589472 0.83729429 0.37340141
0.83903408 0.67169776 0.70879028
0.17640014 0.32995624 0.37594363
0.99176159 0.99084873 0.03488503
0.66728107 0.34121413 0.37855002
0.51186985 0.99900508 0.04177240
0.50107007 0.49751353 0.03758048
0.99266525 0.50796469 0.04053518
0.34384297 0.67449581 0.72139213
0.32745815 0.16624851 0.70024430
0.63700128 0.80680733 0.38034912
0.83387659 0.17311102 0.70249777
0.16145550 0.83137890 0.37411567
0.84348693 0.67264083 0.71269427
0.17627032 0.33090892 0.37541087
0.98472091 0.99178720 0.03791971
0.68132396 0.34125103 0.37150270
0.50615874 0.00082007 0.04567606
0.50216993 0.49755546 0.03495869
0.99123848 0.50448623 0.04690827
0.33513837 0.66443098 0.71354467
0.32472177 0.16201456 0.70357899
0.64728180 0.82163152 0.37613048
0.83426231 0.15897522 0.70490701
0.15878036 0.83096273 0.37659140
0.85045045 0.66883168 0.71243719
0.17236195 0.33291443 0.37406263
0.99388011 0.00499771 0.03717986
0.68353013 0.33536353 0.36648037
0.49990478 0.00466953 0.04654887
0.49707202 0.49600926 0.03625396
0.99486386 0.49715900 0.04657217
0.32393122 0.66244326 0.70511036
0.33233426 0.16482314 0.70955863
0.66418743 0.83524551 0.37048398
0.83400846 0.15414229 0.71194183
0.16750752 0.83656058 0.37468630
0.84531931 0.66271051 0.70980759
0.16715144 0.33078275 0.37216254
0.00512019 0.00847394 0.03882730
0.67616253 0.33642414 0.36688835
0.49542394 0.00516163 0.04610707
0.49094471 0.49380773 0.04127062
0.00100097 0.49604128 0.04051899
0.32921550 0.67130394 0.70756190
0.33822911 0.16862217 0.71162412
0.67748787 0.83697374 0.36831442
0.83397401 0.16372258 0.71581016
0.17012163 0.84144887 0.37355131
0.83637543 0.66431977 0.71057517
0.16127818 0.32288090 0.37263661
0.00252566 0.99794565 0.04076746
0.66978409 0.34133961 0.36858090
0.49669957 0.00377178 0.04466374
0.49276562 0.49747985 0.04131505
0.00229515 0.49893689 0.03562987
0.34258441 0.67987581 0.71573046
0.33732672 0.16772573 0.70889981
0.67738482 0.83325038 0.37061305
0.83382981 0.17469201 0.71169246
0.16232398 0.84095060 0.37805497
0.83378853 0.66679271 0.71317715
0.15956354 0.32154944 0.37462587
0.00010871 0.99446116 0.04140518
0.66955629 0.34098398 0.37141433
0.49803788 0.00323052 0.04537809
0.50083218 0.50037937 0.03791529
0.99986683 0.49698660 0.03925699
0.34201281 0.67666085 0.71135983
0.33502453 0.16493866 0.70471090
0.67303530 0.83306070 0.37108143
0.83515250 0.17404201 0.70548078
0.15454348 0.83591719 0.38130947
0.82963735 0.66145934 0.71229721
0.16107141 0.33056597 0.37808307
0.00023289 0.00253268 0.04253072
0.67304893 0.33602091 0.37412819
0.49813374 0.00145423 0.04718092
0.50414095 0.49824947 0.03665871
0.00186299 0.49630319 0.04691053
0.33566377 0.67032786 0.69938145
0.33755835 0.16316417 0.70572190
0.67394916 0.83902628 0.36931680
0.83505634 0.16459152 0.70644812
0.15781652 0.83355056 0.37912655
0.82232548 0.65175093 0.70966733
0.16445389 0.33974707 0.37996472
0.00113724 0.00917240 0.04165770
0.67405131 0.33284328 0.37553552
0.49648643 0.99824106 0.04361774
0.49949110 0.49705448 0.03873359
0.00901222 0.50174824 0.04459153
0.33311806 0.67268909 0.69589461
0.34240540 0.16547034 0.70862337
0.67575397 0.83981313 0.36832246
0.83135873 0.16129800 0.71072121
0.17072047 0.83939815 0.37514109
0.81762693 0.64874118 0.70785372
0.16755830 0.34005662 0.37886643
0.00219485 0.00726008 0.04170566
0.66607807 0.33474041 0.37674863
0.49454037 0.99617174 0.04114088
0.49527730 0.50063431 0.04624384
0.01285157 0.50460661 0.03932054
0.33618593 0.67634874 0.69913787
0.34123951 0.16839265 0.70949134
0.67668212 0.83491782 0.37167561
0.82890025 0.16609149 0.71255191
0.17254353 0.84062285 0.37353502
0.82203272 0.66186797 0.70927052
0.16532733 0.33306836 0.37986369
0.99889397 0.99748271 0.04191939
0.66044926 0.33785227 0.37573823
0.49523281 0.99576187 0.04225464
0.49777855 0.50554397 0.04941202
0.00844640 0.50228744 0.03850500
0.34140884 0.67335200 0.70424433
0.33699623 0.16563896 0.70694731
0.67122933 0.83237690 0.37604570
0.83070666 0.17089336 0.70878095
0.16627218 0.82993620 0.37643584
0.83009403 0.67654854 0.71106273
0.16165390 0.32814896 0.38120365
0.99822691 0.99527023 0.04065841
0.66656075 0.33451707 0.37220387
0.49452714 0.99681814 0.04558118
0.49947863 0.50143702 0.04518242
0.00314972 0.50077207 0.04020939
0.34023015 0.66720353 0.70732230
0.33557586 0.16472826 0.70142420
0.66534269 0.83463167 0.37597832
0.83254572 0.16652904 0.70750594
0.16286966 0.82145272 0.37955749
0.82922587 0.67471378 0.70908525
0.16278907 0.32943063 0.37885089
0.00443868 0.00494960 0.03938890
0.67440145 0.33204891 0.37076056
0.49131507 0.99781964 0.04614188
0.49825883 0.49308751 0.04140183
0.00304777 0.50176489 0.04057271
0.33338794 0.66207135 0.70641737
0.33467888 0.16682369 0.70143475
0.67181337 0.84110616 0.37288664
0.83293214 0.15910578 0.71263841
0.16516290 0.82510362 0.37989324
0.82892701 0.66764005 0.70791936
0.16266550 0.33269148 0.37756170
0.00715958 0.00995814 0.03691848
0.67150410 0.33105261 0.37248647
0.48920137 0.99616601 0.04085062
0.49906720 0.49593052 0.04101571
0.00520270 0.50340328 0.03531574
0.32938405 0.66398175 0.70635416
0.33477969 0.16917281 0.70627742
0.67722106 0.84130222 0.37155539
0.83491231 0.16485871 0.71431145
0.17421792 0.83828863 0.37639472
0.82924533 0.66443384 0.70833422
0.16207675 0.33480514 0.37744283
0.00656974 0.00441122 0.03696503
0.66115373 0.32974235 0.37537727
0.49197285 0.99958722 0.04037890
0.50303052 0.50604355 0.04432897
0.00348121 0.50079331 0.03043182
0.33292166 0.66638907 0.70703667
0.33437527 0.17090548 0.70785298
0.67423070 0.83222744 0.37448713
0.83709729 0.17224358 0.71126945
0.17582155 0.84306738 0.37353029
0.83050630 0.67067450 0.70959746
0.15902765 0.33223993 0.37843576
0.00424359 0.99607452 0.03910407
0.66260539 0.33272082 0.37790575
0.50053833 0.00762181 0.04231262
0.50975080 0.50887279 0.04540698
0.99715878 0.49692229 0.03298586
0.33739695 0.66253858 0.70944829
0.33570309 0.17154735 0.70428829
0.66254329 0.82433127 0.37738361
0.83747325 0.17181395 0.71002833
0.16931966 0.83311583 0.37535865
0.83612574 0.67691755 0.70899778
0.15524846 0.33027174 0.37567231
0.00108164 0.99845734 0.04074792
0.67219695 0.33453499 0.37531617
0.50423840 0.00767362 0.04089283
0.51109615 0.50059688 0.04328663
0.99797437 0.49758497 0.03851518
0.33609336 0.65995502 0.71103217
0.33950917 0.17195974 0.70230891
0.65399060 0.82288646 0.37743716
0.83802133 0.17050377 0.71265301
0.16658960 0.82639385 0.37596037
0.83836315 0.67181711 0.70791993
0.16117180 0.33353398 0.36871002
0.99681509 0.00655487 0.04227804
0.67252774 0.33261716 0.36898850
0.50400517 0.00302788 0.04011045
0.50257644 0.49345478 0.04448237
0.00437007 0.50267324 0.03998634
0.32830987 0.66092050 0.71153153
0.33847956 0.16690151 0.70918678
0.65984723 0.82746050 0.37413753
0.83789317 0.16794324 0.71548970
0.17060193 0.83617529 0.37213901
0.83554137 0.66579434 0.70860375
0.17150326 0.33785149 0.36699975
0.98921875 0.99857657 0.04200496
0.66519870 0.33242991 0.36840017
0.50481350 0.00233621 0.03765761
0.50053118 0.50221715 0.04548626
0.00337017 0.50601142 0.03834280
0.32183773 0.66407277 0.71399005
0.33303915 0.16579551 0.71563538
0.66887791 0.83140173 0.37158666
0.83673544 0.16653770 0.71284331
0.17527722 0.84635731 0.37083891
0.83527741 0.66947809 0.70746122
0.17469499 0.33889528 0.36894858
0.98716823 0.98376078 0.04378415
0.65881868 0.33282413 0.37528260
0.50571486 0.00775871 0.03805247
0.50352569 0.50789284 0.04226587
0.99719074 0.50071833 0.04042428
0.32677081 0.66635698 0.71485615
0.32831023 0.17070370 0.71428945
0.66972679 0.83113207 0.37208776
0.83604032 0.16643510 0.70678605
0.16892939 0.83739161 0.37670760
0.84116577 0.67887204 0.70437346
0.16738483 0.33550261 0.36974385
0.99137353 0.98154659 0.04602161
0.66061556 0.33445702 0.38210069
0.50721955 0.01226768 0.04136505
0.50383274 0.49928573 0.03698412
0.99242055 0.49340904 0.04810050
0.33634610 0.66716430 0.71290115
0.32804780 0.17333227 0.70829363
0.66319703 0.83034107 0.37317759
0.83679600 0.16593690 0.70315027
0.15791869 0.81881118 0.38314656
0.84836800 0.67861834 0.70098578
0.16167262 0.32952425 0.36917816
0.99481544 0.99183044 0.04647196
0.66965693 0.33523526 0.38272659
0.50642665 0.00480200 0.03817516
0.50087202 0.49038727 0.03431177
0.99568580 0.49715582 0.05294620
0.33210182 0.66760210 0.70767652
0.33394886 0.17362435 0.70576205
0.65581777 0.83437384 0.37229011
0.83644287 0.16454046 0.70270521
0.15491914 0.81376477 0.38151992
0.84416098 0.66326126 0.70148785
0.16826506 0.33123459 0.36604665
0.00127887 0.00401368 0.04708287
0.66967232 0.32759012 0.38101411
0.50383587 0.99481177 0.03219149
0.49986326 0.49153533 0.03463492
0.00445911 0.50527491 0.05031511
0.32276081 0.66771957 0.70372105
0.33692758 0.17374938 0.70789362
0.65800307 0.83459875 0.37343499
0.83517587 0.16393132 0.70148681
0.15540170 0.82958264 0.37436151
0.82946770 0.65237166 0.70333065
0.17666075 0.33897191 0.36805062
0.00599417 0.00135988 0.05018000
0.66046555 0.32467209 0.38110093
0.50435727 0.99676032 0.03026576
0.50846470 0.50367279 0.03558590
0.00073558 0.50754040 0.04528435
0.32961496 0.66949037 0.70564734
0.33060768 0.17062000 0.71157822
0.66597757 0.83423293 0.37732052
0.83342260 0.16484798 0.69920197
0.16507452 0.84471484 0.36560411
0.81888120 0.65459278 0.70120579
0.17759168 0.34744073 0.37421672
0.00462015 0.99364804 0.05398043
0.65908747 0.33062213 0.38472947
0.51026101 0.00929316 0.03579230
0.50555249 0.50959930 0.03754844
0.99447954 0.50539342 0.04483987
0.34568547 0.67116619 0.71216154
0.32571504 0.16788611 0.71101894
0.67033557 0.83932032 0.37906812
0.83219933 0.16720286 0.69888580
0.17616129 0.84585691 0.36456958
0.83109207 0.66361586 0.70055840
0.17604650 0.34577776 0.37379172
0.00264379 0.99610280 0.05599577
0.66369988 0.33625095 0.38378711
0.51978511 0.01897067 0.04257859
0.48446563 0.49941900 0.04038314
0.99631124 0.50235317 0.04954090
0.34764684 0.66895234 0.71553818
0.32784709 0.16344320 0.70862831
0.66551306 0.84020951 0.37662968
0.83489895 0.17204630 0.70166590
0.17393395 0.83840330 0.37600134
0.85254093 0.66840207 0.70434348
0.17330408 0.33497706 0.36864148
0.00126691 0.00131361 0.05034163
0.66568735 0.33562616 0.37643694
0.52650261 0.01292795 0.04339414
0.47482162 0.49675602 0.03939394
0.00124149 0.50027019 0.05224472
0.33566162 0.66944702 0.71571143
0.33024899 0.15840022 0.71368131
0.65610090 0.83713031 0.37394999
0.83920771 0.17349915 0.70334616
0.16834963 0.83489035 0.38174314
0.84262533 0.65836594 0.70512056
0.18144962 0.32952573 0.36663144
0.00244238 0.00316236 0.04403411
0.66116289 0.32462036 0.37158278
0.52145257 0.00076275 0.04292049
0.48593348 0.50879529 0.03451418
0.00430053 0.50256290 0.04619084
0.32427561 0.66965735 0.71165935
0.32634534 0.15114936 0.72367682
0.65806399 0.83687255 0.37706477
0.83358195 0.16450582 0.70344862
0.16274013 0.83621915 0.37232032
0.82840306 0.65537981 0.70978888
0.18886788 0.33623696 0.37154342
0.00780086 0.00031646 0.04396482
0.65304118 0.32010630 0.37505838
0.51135649 0.00187858 0.04262164
0.51084708 0.51689617 0.02942660
0.99566446 0.49968571 0.04015759
0.32199274 0.66507526 0.70680232
0.31251497 0.14254768 0.72609353
0.66830642 0.83998251 0.38421047
0.82283943 0.15536071 0.70529195
0.15503046 0.83674505 0.36028285
0.84225681 0.67315718 0.71649254
0.18842705 0.34649228 0.37882108
0.00407848 0.99561667 0.03952680
0.65182075 0.32998976 0.38272741
0.50648002 0.00370802 0.04421253
0.52285411 0.51174328 0.03131355
0.98024825 0.48591548 0.03778658
0.32746709 0.65966954 0.70747241
0.30328829 0.14142965 0.71657137
0.67108223 0.84173697 0.38633659
0.81703612 0.15890829 0.70884686
0.15809648 0.83313584 0.35948647
0.86460885 0.68535064 0.71594056
0.17930549 0.34448169 0.37881946
0.99758899 0.99834076 0.03034037
0.66567119 0.33910106 0.37943389
0.51010794 0.99802181 0.04898947
0.50771117 0.49998849 0.03979848
0.97736238 0.48517554 0.03400480
0.33288827 0.66142060 0.70816650
0.31689686 0.15609317 0.70806806
0.66490787 0.83848731 0.38181826
0.82002701 0.16431134 0.70880271
0.16361804 0.82600348 0.36637380
0.85805344 0.67614362 0.70826810
0.17185692 0.33140165 0.37430913
0.00027397 0.00581585 0.02547557
0.68186050 0.34281600 0.36896639
0.51246317 0.99291229 0.04698226
0.50029326 0.49973015 0.04322617
0.98806929 0.50390988 0.03218433
0.33640140 0.66648423 0.70672265
0.34041659 0.17670607 0.70661769
0.65476021 0.83336765 0.37499089
0.82904091 0.16472136 0.70649817
0.16824713 0.82268961 0.36680205
0.83490972 0.66435853 0.70901080
0.17225551 0.32886743 0.37132130
0.01405078 0.01597268 0.02804465
0.68198511 0.34088761 0.36403320
0.49811971 0.98997404 0.04377769
0.50927866 0.50684763 0.03863344
0.00112212 0.51334597 0.03707598
0.33759970 0.66614527 0.70800651
0.34605428 0.18064855 0.71026187
0.64969920 0.82790644 0.37139409
0.83035692 0.16438643 0.70815673
0.16854532 0.82770665 0.36225427
0.82546998 0.66672252 0.71884939
0.17683374 0.33555656 0.37224166
0.02240591 0.01971937 0.03272214
0.67350853 0.33954418 0.36787449
0.48152138 0.99080375 0.04618336
0.51672109 0.50737972 0.03533079
0.00186487 0.50169078 0.04192639
0.33964159 0.67403250 0.71071491
0.33497903 0.17053940 0.71371125
0.65557948 0.82604617 0.37277889
0.82150432 0.16549373 0.71082333
0.16746325 0.83617415 0.36824667
0.83370074 0.67385948 0.72180613
0.17119521 0.33830897 0.37997809
0.01467802 0.01381805 0.03359347
0.67615123 0.34318057 0.37655362
0.47975610 0.98490444 0.04696999
0.50643179 0.50514821 0.03939855
0.99413184 0.48945000 0.04036707
0.34058333 0.67871469 0.71048334
0.32937270 0.16409183 0.71157163
0.66432261 0.83059031 0.37282488
0.81700981 0.16734626 0.70832618
0.17197139 0.84162195 0.38170786
0.83833576 0.67333859 0.71438309
0.16272248 0.33306856 0.38137982
0.00767214 0.00942904 0.03364480
0.68010578 0.34476225 0.37664126
0.49588756 0.98427722 0.04950338
0.48431209 0.49650827 0.04524628
0.99568655 0.48915770 0.03895244
0.33439797 0.66793180 0.70733108
0.33612766 0.16630094 0.70425115
0.67127685 0.83243516 0.37351835
0.82236153 0.17051151 0.70280547
0.17035031 0.83652353 0.38844497
0.82812082 0.66199166 0.70914839
0.15583324 0.32138203 0.37947471
0.00419107 0.00343909 0.03529626
0.67861894 0.34377104 0.36895617
0.50838713 0.99565410 0.04586843
0.48039195 0.48771563 0.04146681
0.00106528 0.49474108 0.03711991
0.33275868 0.66292338 0.70558427
0.34162694 0.16758874 0.70189299
0.67469808 0.82842110 0.37231075
0.83433744 0.17071658 0.70122728
0.16421785 0.82843983 0.38212516
0.81878413 0.65461386 0.71167370
0.15721463 0.31617855 0.37905508
0.00045208 0.00136859 0.04157649
0.67609884 0.34267886 0.36561631
0.50376595 0.00601806 0.03996736
0.49373407 0.49709796 0.03987306
0.00480512 0.49702090 0.03716020
0.33386367 0.66763353 0.70401448
0.33838462 0.16690223 0.70315175
0.67692221 0.82913998 0.36905729
0.83923931 0.16883418 0.70683686
0.16129776 0.82944527 0.37431243
0.82254568 0.66018193 0.71333278
0.16219435 0.32010178 0.37907037
0.99978311 0.00416090 0.04497709
0.67069081 0.33763832 0.36950671
0.49804059 0.01044576 0.03818418
0.50554642 0.51314854 0.04445563
0.00256006 0.49451937 0.04181776
0.33589282 0.67573523 0.70124157
0.33643314 0.16965010 0.70265168
0.67858689 0.83666636 0.36832987
0.83553168 0.16924237 0.71204440
0.15851998 0.83240507 0.37782001
0.83568016 0.66959543 0.70887561
0.15663530 0.32535480 0.37824112
0.00036670 0.99994552 0.04189143
0.66870408 0.33413429 0.37374736
0.50178739 0.00842371 0.04135903
0.50541309 0.51397805 0.04796404
0.99663767 0.49382823 0.04635621
0.33921128 0.68165178 0.70016824
0.33972250 0.17617159 0.70175233
0.67574632 0.84149983 0.36857792
0.83406334 0.17252772 0.71297714
0.16446526 0.83398142 0.38124851
0.83793189 0.66880423 0.70635037
0.15274568 0.32949637 0.37634497
0.00117587 0.99583950 0.04114191
0.66728445 0.33190185 0.37136495
0.50468103 0.00110469 0.04650866
0.49388156 0.49891142 0.04881351
0.00157651 0.49866178 0.04442496
0.34143781 0.67802758 0.70293348
0.34409200 0.17501524 0.70292291
0.67196631 0.83612469 0.36857831
0.83726665 0.17078503 0.71043492
0.17554194 0.83531186 0.37938534
0.82163160 0.66055295 0.70779775
0.15892875 0.33018527 0.37522157
0.00338540 0.99525800 0.04253814
0.66446845 0.33053791 0.36881518
0.49739951 0.99536539 0.04644194
0.49013437 0.48815344 0.04597490
0.01309118 0.51173648 0.03731960
0.34118028 0.66999773 0.70820732
0.34396777 0.16798586 0.70548350
0.66709962 0.82868385 0.36947828
0.84074164 0.16760042 0.70913772
0.17707108 0.83446237 0.37841350
0.81086908 0.65859273 0.71064394
0.16431989 0.33083991 0.37291456
0.00422778 0.99738748 0.04321231
0.66530151 0.33167573 0.37125712
0.48956017 0.99614245 0.04317110
0.49927562 0.49556268 0.04316401
0.01534295 0.51640826 0.03594177
0.33638758 0.66410932 0.70952430
0.33671411 0.16533021 0.70816670
0.66445623 0.83044155 0.37354811
0.84083159 0.16514721 0.71135035
0.17100912 0.83426430 0.37798298
0.81834211 0.66452407 0.71213553
0.16966685 0.33535299 0.37409564
0.00374672 0.00081331 0.04102721
0.66560722 0.33056652 0.37647586
0.48611145 0.99844234 0.04001534
0.50323120 0.50574316 0.04576827
0.00839927 0.51004480 0.03687203
0.33256306 0.66445918 0.70586392
0.33073257 0.16786521 0.70916685
0.66755518 0.83831214 0.37751793
0.83532633 0.16389828 0.71309543
0.16596953 0.83344337 0.37901842
0.83263576 0.66804934 0.71095171
0.16812245 0.33705608 0.37746827
0.99953723 0.00108176 0.03666325
0.66609678 0.32787450 0.38131896
0.49176314 0.00026345 0.03829638
0.50094545 0.50533177 0.04733228
0.99958842 0.50032055 0.03746635
0.33147675 0.66720364 0.70322516
0.33277784 0.17271792 0.70757375
0.66762405 0.83823477 0.37694642
0.83395176 0.16503818 0.71289048
0.16780153 0.83187798 0.37779213
0.83867070 0.66664448 0.70855298
0.16477212 0.33602829 0.37557753
0.99609483 0.99932018 0.03589942
0.66501389 0.32910402 0.38099929
0.49629664 0.00014811 0.04006119
0.49945091 0.49916581 0.04326279
0.00243431 0.49827521 0.03903691
0.33084431 0.66389881 0.70610412
0.33447520 0.16957199 0.70757120
0.66622050 0.83101763 0.37669237
0.83928030 0.16819599 0.71280770
0.17209683 0.83461536 0.37341839
0.83410980 0.66490119 0.70584760
0.16610881 0.33522768 0.37153501
0.99311812 0.99648356 0.03890157
0.66026779 0.33102896 0.37507048
0.49875759 0.00467927 0.03998768
0.50460719 0.49649309 0.03789902
0.00802951 0.50302939 0.03945371
0.33138869 0.66093773 0.71123399
0.33108703 0.16226539 0.70959968
0.66711109 0.82874070 0.37763170
0.84149237 0.16791582 0.71279264
0.17021981 0.83659210 0.37083874
0.83324576 0.66699303 0.70398901
0.17090796 0.33919462 0.37014848
0.98874967 0.99489758 0.04117756
0.66151721 0.33113118 0.37049090
0.50397111 0.01213463 0.03721661
0.51369740 0.50297743 0.03786333
0.00221072 0.50347226 0.04144579
0.33073978 0.66493880 0.71072806
0.32759698 0.16255089 0.71256719
0.66856356 0.83619643 0.37655987
0.83605478 0.16325463 0.71115694
0.16440141 0.83482116 0.37312018
0.84289294 0.67169593 0.70357432
0.17434727 0.34386285 0.37013567
0.99211888 0.99753696 0.03990029
0.66595403 0.32953437 0.37188032
0.50582007 0.01296657 0.03626532
0.51227918 0.50712583 0.04133567
0.99322106 0.49791598 0.04586156
0.32675912 0.66449351 0.70873428
0.33235670 0.16939619 0.71299977
0.67085875 0.84655254 0.37518496
0.82902840 0.16198870 0.70811662
0.16264343 0.83382343 0.37691439
0.85001076 0.67428805 0.70223801
0.17011604 0.34242442 0.37169586
0.99824270 0.99986341 0.04067961
0.66507373 0.32780234 0.37595436
0.50191481 0.00352537 0.03757732
0.50391148 0.49870844 0.04363384
0.99235551 0.49656972 0.04638391
0.32642984 0.65978851 0.71094571
0.33901023 0.17281659 0.71110606
0.67112840 0.84694313 0.37369990
0.83256169 0.16706986 0.70502987
0.16761452 0.83443043 0.37696163
0.84402933 0.67353482 0.70014064
0.16567702 0.33897526 0.37157471
0.99816281 0.99975468 0.04594808
0.66361979 0.33000930 0.37632507
0.49963891 0.99402739 0.03762757
0.49949516 0.48830080 0.04244538
0.99961904 0.50142719 0.04414652
0.32946982 0.65464473 0.71472700
0.33982867 0.16940200 0.70888395
0.66489482 0.83374649 0.37489954
0.83783153 0.16940101 0.70405124
0.17295645 0.83680363 0.37501174
0.83274667 0.67275851 0.70132402
0.17195502 0.33536760 0.37025626
0.99772940 0.99692063 0.05119150
0.66478910 0.33597130 0.37326415
0.50080130 0.99387869 0.03329547
0.50400474 0.48902025 0.03984967
0.00222850 0.50430838 0.04317722
0.33214383 0.65425606 0.71487977
0.33405941 0.16351005 0.70973552
0.65993770 0.82754078 0.37943879
0.83418137 0.16719419 0.70353952
0.16267409 0.83350452 0.37329644
0.83256277 0.67410509 0.70620612
0.17599854 0.33141987 0.37309095
0.99937756 0.99527065 0.05356143
0.67213790 0.33748340 0.37144247
0.50659731 0.00065211 0.02949954
0.50718388 0.50052216 0.03931871
0.99305581 0.49863082 0.04618663
0.33109785 0.65969448 0.71033346
0.32851510 0.16365473 0.71182729
0.66402769 0.83905107 0.38194492
0.82741071 0.16581302 0.69887293
0.14949726 0.82534038 0.36977188
0.84179578 0.67459070 0.70985970
0.17370941 0.33225002 0.37700183
0.00274664 0.99922591 0.05146911
0.67385710 0.33351130 0.37826764
0.50816513 0.00070309 0.03160600
0.49793142 0.51322968 0.04181511
0.98892766 0.49325194 0.04847450
0.32988282 0.66554740 0.70733555
0.33166673 0.17099193 0.71177725
0.67077957 0.84486886 0.37827143
0.82330604 0.16632248 0.69355919
0.15807200 0.82569824 0.36789143
0.84833833 0.67116615 0.70905126
0.17285616 0.33279473 0.37698351
0.00279292 0.99986614 0.04885505
0.66162400 0.33128482 0.38754396
0.50196826 0.99660332 0.03817920
0.49031176 0.51375208 0.04021696
0.99374813 0.49195802 0.04805646
0.33129226 0.67058333 0.70987124
0.33758094 0.17645986 0.70917860
0.66767836 0.83014084 0.37190604
0.82594332 0.16723861 0.69604081
0.17579620 0.83384673 0.36453407
0.84740043 0.66935418 0.70541796
0.17595912 0.33425488 0.37201287
0.99672598 0.99424897 0.04831463
0.65266727 0.33742793 0.38766678
0.50375377 0.99399079 0.04543980
0.49368502 0.50361412 0.03288778
0.99878245 0.49329278 0.04764619
0.33358097 0.67340251 0.71381265
0.33578197 0.17029695 0.70832765
0.65549146 0.81116368 0.37343874
0.83392980 0.17441486 0.70112642
0.17848934 0.84490296 0.36147678
0.84221738 0.66941438 0.70630548
0.17886794 0.33799283 0.37047033
0.99554696 0.99138391 0.04590009
0.65708407 0.34730379 0.38042146
0.51627665 0.00026204 0.04559978
0.49457609 0.49169870 0.02852399
0.99640402 0.49350123 0.04682794
0.33520039 0.67479384 0.71336869
0.32801134 0.15795318 0.71094110
0.65310116 0.81618093 0.37860465
0.83451813 0.18147312 0.70156695
0.16675051 0.84736821 0.36332068
0.83770175 0.66512308 0.71431466
0.18375494 0.34014154 0.37693667
0.00210676 0.99307747 0.04091517
0.67136665 0.34705282 0.37964292
0.52116921 0.01014540 0.04183976
0.48949092 0.49082873 0.03016253
0.98898912 0.49377531 0.04433725
0.33536513 0.67912509 0.70725711
0.32521674 0.15902566 0.71111925
0.65853436 0.83614994 0.38020284
0.83069214 0.18027564 0.69919522
0.15955524 0.83416814 0.36821256
0.83692687 0.66056134 0.71861003
0.17921958 0.33951215 0.38466894
0.00799453 0.00287472 0.03710820
0.67926307 0.33363669 0.38389590
0.51393258 0.00831915 0.04519047
0.48641259 0.50140711 0.03296968
0.99385647 0.49428306 0.04016842
0.33427017 0.67535312 0.70084765
0.33247737 0.17260810 0.70459950
0.65297774 0.83944073 0.37973576
0.83250510 0.17288044 0.70186584
0.17131666 0.82656474 0.36904219
0.83672257 0.66105435 0.71623535
0.16736086 0.33498036 0.38775964
0.00834054 0.00999377 0.03588683
0.67277641 0.32450982 0.38210282
0.50467476 0.99903840 0.04960724
0.49365385 0.49921861 0.03425540
0.00569290 0.49819388 0.03580977
0.33452979 0.67190357 0.70471841
0.32853213 0.16823688 0.70581239
0.64766065 0.82361193 0.38003475
0.83808650 0.16603893 0.70905463
0.17611876 0.82739808 0.36696575
0.83391697 0.66786610 0.71198282
0.16027676 0.33199569 0.38969524
0.99953350 0.00439183 0.03722392
0.67391319 0.33604154 0.36843799
0.50738654 0.99643819 0.04817199
0.50609800 0.49065562 0.03549517
0.00460532 0.50186771 0.03811731
0.33651355 0.67049373 0.71327263
0.31692219 0.15802241 0.70995722
0.65383955 0.81284379 0.38081410
0.83437938 0.16195583 0.71140611
0.16157605 0.82978822 0.36801724
0.82691223 0.66938134 0.71462882
0.15820645 0.33217412 0.39000446
0.99932644 0.99800047 0.03886515
0.68408856 0.34885228 0.36092404
0.51216479 0.00220419 0.05013357
0.50567790 0.49281287 0.03259746
0.99404634 0.49545456 0.04362753
0.34659136 0.66982112 0.71368588
0.31480906 0.16036312 0.71023579
0.66555876 0.81570705 0.37279677
0.82822415 0.16445644 0.70624878
0.14494368 0.83337033 0.37085465
0.82652468 0.66575596 0.72399673
0.16368878 0.33400927 0.38495697
0.00753599 0.99674666 0.03774760
0.68403388 0.34320335 0.36902894
0.50516945 0.00514118 0.05511152
0.49425483 0.50206791 0.03232458
0.98983944 0.49181434 0.04313666
0.35782285 0.68071233 0.70366205
0.31827747 0.16898494 0.70627931
0.67889180 0.82928402 0.36327808
0.83677390 0.16832288 0.70201152
0.14242330 0.83386780 0.37304940
0.83259207 0.66558591 0.72694926
0.16860132 0.33631412 0.37867250
0.00484602 0.00485780 0.03577863
0.67452446 0.32924156 0.37853244
0.49569298 0.99874001 0.05914035
0.48913459 0.50820328 0.03712783
0.99700260 0.49470296 0.03911180
0.36020710 0.68982958 0.69010841
0.31911345 0.16438743 0.70734651
0.68064584 0.83465531 0.36713069
0.84343201 0.16505528 0.70437426
0.15363380 0.83595426 0.37555114
0.83782072 0.67089814 0.71939421
0.17100556 0.33893160 0.37517614
0.00521565 0.01597540 0.03122513
0.66100502 0.32857875 0.37202205
0.49010012 0.99484040 0.05493025
0.49517880 0.50426637 0.04104664
0.01018949 0.49751035 0.04012296
0.34811329 0.68351963 0.68873087
0.32311827 0.15133560 0.70833986
0.66782330 0.82513376 0.37885639
0.82959287 0.16213038 0.70840783
0.16745894 0.84221456 0.37902972
0.83691359 0.67089314 0.70955162
0.16551124 0.34017403 0.37827380
0.01224062 0.01713730 0.03083607
0.66007524 0.34183210 0.36039768
0.49371774 0.00065450 0.04383843
0.50762192 0.49825274 0.04014268
0.01682072 0.50095931 0.04276718
0.33190769 0.67300250 0.69813515
0.33210993 0.14861554 0.70340993
0.66056161 0.81538845 0.37890892
0.82141127 0.16496177 0.70817604
0.17250641 0.84947747 0.38391326
0.82803642 0.66444465 0.70707611
0.15554716 0.33419252 0.38394992
0.01131192 0.00919447 0.03649853
0.66628525 0.34584413 0.36018124
0.49916972 0.00317656 0.03965901
0.50855133 0.49581213 0.04093894
0.01586454 0.50610896 0.03983431
0.32411948 0.66126569 0.70644255
0.34452438 0.15827175 0.69608393
0.66797923 0.82526852 0.36703517
0.82687509 0.16936582 0.70463311
0.16945670 0.84597363 0.38913285
0.81892875 0.65362281 0.71242491
0.15204773 0.32436735 0.38148455
0.00302161 0.00349266 0.03919892
0.66706835 0.33484314 0.37479325
0.49637097 0.99689742 0.04217558
0.49708896 0.49777628 0.04962681
0.00945425 0.50730000 0.03527326
0.33350385 0.66498106 0.70343987
0.35124691 0.16765804 0.69786372
0.68316699 0.84430184 0.35906475
0.83641780 0.17054084 0.70340948
0.16423850 0.83005974 0.38979661
0.81992580 0.65540165 0.71229498
0.15371471 0.32264728 0.37397622
0.99710139 0.00756430 0.03721898
0.66566565 0.32622510 0.38599092
0.48800071 0.98878835 0.04295550
0.49128577 0.50353173 0.05865821
0.00169678 0.50128928 0.03693258
0.34455797 0.66872145 0.70147481
0.35020739 0.17052920 0.70618428
0.68854041 0.86037168 0.36150427
0.84001059 0.17079273 0.70930309
0.16566225 0.82488206 0.38370550
0.82346133 0.66573120 0.70730395
0.15434678 0.32747463 0.37064676
0.99819010 0.01081445 0.03994590
0.66699297 0.32882024 0.37835353
0.48524948 0.98741907 0.04245308
0.50040924 0.50613595 0.06010803
0.00146168 0.50094739 0.03859294
0.34430574 0.66447821 0.70569788
0.34652681 0.16582825 0.70841694
0.68180707 0.85877555 0.37085015
0.83448217 0.17052843 0.71796332
0.17181158 0.83264693 0.37912886
0.82103412 0.66737287 0.70655640
0.15143596 0.33093065 0.37343812
0.00289610 0.00382878 0.04563467
0.67317431 0.33888448 0.36514436
0.48947953 0.99159633 0.04106768
0.51521338 0.50570874 0.05083775
0.00578876 0.50738806 0.03678730
0.33430671 0.65990035 0.70921524
0.34147414 0.16385303 0.70195434
0.67354816 0.84285151 0.37714427
0.83166039 0.16897519 0.71993226
0.17194554 0.83976963 0.37937800
0.81862362 0.66087176 0.70873196
0.14666342 0.33001394 0.37522641
0.00620616 0.99661129 0.04668438
0.67738542 0.34598114 0.36527290
0.49683685 0.99401471 0.04195391
0.51612712 0.50430298 0.03955124
0.00777528 0.50669921 0.03735922
0.32503553 0.65912115 0.70853928
0.33809600 0.17058445 0.69962159
0.66925064 0.83287606 0.37811412
0.83503943 0.17047373 0.71365454
0.16847279 0.83929765 0.37790374
0.82442062 0.65778826 0.71105061
0.14871948 0.33083308 0.37066028
0.00756230 0.99795539 0.04113704
0.67173958 0.33751810 0.37621747
0.49673837 0.99267628 0.04217066
0.50280232 0.50137185 0.03848520
0.00602674 0.50286816 0.03777517
0.32752774 0.66168423 0.70563479
0.33816969 0.17806313 0.70457136
0.66956645 0.83881453 0.37605770
0.83942204 0.16881579 0.70960127
0.16659027 0.83019303 0.37535503
0.83371195 0.66442183 0.71000033
0.15707426 0.33563342 0.36617895
0.00201131 0.99915565 0.03568588
0.66502732 0.32433574 0.38235534
0.49366302 0.99429353 0.03987279
0.49448956 0.49995921 0.04360800
0.00305194 0.50269317 0.03841122
0.33210778 0.66247391 0.70299514
0.33789815 0.17480064 0.70967534
0.66802805 0.84485047 0.37551931
0.84059180 0.16421154 0.71500341
0.16906102 0.82466726 0.37423532
0.83902513 0.67580398 0.70361223
0.16812890 0.33903304 0.36937115
0.99539346 0.99718533 0.03575180
0.66007510 0.32204850 0.37781373
0.49274668 0.00051244 0.03768639
0.50201982 0.50060461 0.04285267
0.00086246 0.50384917 0.04057664
0.32949733 0.65985403 0.70491996
0.33887313 0.16654367 0.70931225
0.66102739 0.83747903 0.37736212
0.83510112 0.16144921 0.72042128
0.17366487 0.83075435 0.37682863
0.83674758 0.67801692 0.69802558
0.17623568 0.33987497 0.37519513
0.99465199 0.99330858 0.04002788
0.65977087 0.33093554 0.37197374
0.49582157 0.00476957 0.03757642
0.51229008 0.50096777 0.03888003
0.00159423 0.50485405 0.04286126
0.32547330 0.65949648 0.70966662
0.33700706 0.16446466 0.70614645
0.65596699 0.82901056 0.37813994
0.83347300 0.16158689 0.71755566
0.17510949 0.84084101 0.38266112
0.83108495 0.67241637 0.69736204
0.17403500 0.33537969 0.37512339
0.99687608 0.99258166 0.04342040
0.66418746 0.33739749 0.37270071
0.50181317 0.00409635 0.03873960
0.50904612 0.50022613 0.03792948
0.00340267 0.50407310 0.04495445
0.32892988 0.66290808 0.71242680
0.33290619 0.17197251 0.70701959
0.65945226 0.83187350 0.37455024
0.84001666 0.16409857 0.71106681
0.17369580 0.83966471 0.38353934
0.83198597 0.66874427 0.70225630
0.17155209 0.33094597 0.36650070
0.99746891 0.99356707 0.04304937
0.66296997 0.33098226 0.37853673
0.50430712 0.00423907 0.04057889
0.49913419 0.49836299 0.04318965
0.00021119 0.50141541 0.04505367
0.33794025 0.66891844 0.71056315
0.32954089 0.17829412 0.71201976
0.66793945 0.84052477 0.37260154
0.84210623 0.16390697 0.70709008
0.17176438 0.82980965 0.37999818
0.83843521 0.67210095 0.70458640
0.17364453 0.33333727 0.36179189
0.99363300 0.99281900 0.04097725
0.65671511 0.32169001 0.38128970
0.50248534 0.00489140 0.04003018
0.49815956 0.49779801 0.04861636
0.99294391 0.49754736 0.04230911
0.34261607 0.67323044 0.70816475
0.32674992 0.17364105 0.71719273
0.67245947 0.84159714 0.37537347
0.83677276 0.16347146 0.70844554
0.16792244 0.82687363 0.37615191
0.83948375 0.67429228 0.70124288
0.17722454 0.33925988 0.36874702
0.99138976 0.99432665 0.04307767
0.65756499 0.32555812 0.37636637
0.50153122 0.00516426 0.03621160
0.50465882 0.49866451 0.04610909
0.99039785 0.49697373 0.03907802
0.33668858 0.67252593 0.70898340
0.32881800 0.16576660 0.71543968
0.66671192 0.83107756 0.37904507
0.82849180 0.16437899 0.70844565
0.16586984 0.83399465 0.37328874
0.83507240 0.66759962 0.69992785
0.17734190 0.33889557 0.37592045
0.00026720 0.99830154 0.04733179
0.66438703 0.33328710 0.37318136
0.50395467 0.00659567 0.03462008
0.50595065 0.50102270 0.03935281
0.99389222 0.50198089 0.03924151
0.32712991 0.66709501 0.71217345
0.33225258 0.16594648 0.70880511
0.66164722 0.82651133 0.37895809
0.82564428 0.16540675 0.70160785
0.16659814 0.83684403 0.37222229
0.83624627 0.65900682 0.70531306
0.16907371 0.33304825 0.37520407
0.00919103 0.99964534 0.04530068
0.67138444 0.33474137 0.37700932
0.51128314 0.00773389 0.03591792
0.49689907 0.50275728 0.03636634
0.99949755 0.50438655 0.04148872
0.32332815 0.66141560 0.71431339
0.33330208 0.16947555 0.70814691
0.66220649 0.83129297 0.37632370
0.82904070 0.16619968 0.69260557
0.16665812 0.83192441 0.36915310
0.84477447 0.66077163 0.71169472
0.16555099 0.33238749 0.37091942
0.00503670 0.00180943 0.04156660
0.66770980 0.32891664 0.37961213
0.51391798 0.00821932 0.03707380
0.48700794 0.49760650 0.03931755
0.00178124 0.50252669 0.04365151
0.33007023 0.66464489 0.71238624
0.33299085 0.16677483 0.71287411
0.66504122 0.83447232 0.37567341
0.83362034 0.16967106 0.69157066
0.16120979 0.82619489 0.36426666
0.84983754 0.67017770 0.71218151
0.17456882 0.33788848 0.37123280
0.99587263 0.00456413 0.04251341
0.65819960 0.32390978 0.37699382
0.50826599 0.00647737 0.03709217
0.49075113 0.49655266 0.04047657
0.99855004 0.49949928 0.04548521
0.33788988 0.67195319 0.71000802
0.33006191 0.15844430 0.71259428
0.66787446 0.83332711 0.37750544
0.83009221 0.17232165 0.70198117
0.15568756 0.82747728 0.36295041
0.84517769 0.67502530 0.70794955
0.18158118 0.34016642 0.37740582
0.99486695 0.00289667 0.04570711
0.65748681 0.32845707 0.37266102
0.50419889 0.00028340 0.03953850
0.50287543 0.50562065 0.03480945
0.99478521 0.49621238 0.04654999
0.33541283 0.66797537 0.71395337
0.32699957 0.15617770 0.70702170
0.66728812 0.83080039 0.37879080
0.82367841 0.17169951 0.71228982
0.15927028 0.83667011 0.36488231
0.83437516 0.66575417 0.70836954
0.17950045 0.33612267 0.38177212
0.00322661 0.00020720 0.04923561
0.66517513 0.33892653 0.37282048
0.50489382 0.99481782 0.04437762
0.50492011 0.51029225 0.03172205
0.99839648 0.49834267 0.04514885
0.32876242 0.65697560 0.71677256
0.32515541 0.16053653 0.70359370
0.66592344 0.83297015 0.37718929
0.82879414 0.16792690 0.71146185
0.16805708 0.84168760 0.36833129
0.83260767 0.66017765 0.71400126
0.16927221 0.33131985 0.37911142
0.00753763 0.00256928 0.04892226
0.67455531 0.34275353 0.37816115
0.50981670 0.99630646 0.04757965
0.49416200 0.50667996 0.03393846
0.00517025 0.50194535 0.04452648
0.32965411 0.65500645 0.71350182
0.32696124 0.16506157 0.70713543
0.66996705 0.83741761 0.37368924
0.84399675 0.16630343 0.70579137
0.16848865 0.83620705 0.36854167
0.84143286 0.66755588 0.71835866
0.16292347 0.33234640 0.37444798
0.99812142 0.00363701 0.04265224
0.67597593 0.34012558 0.38231498
0.51298551 0.00460350 0.04680569
0.48482712 0.49868207 0.03909797
0.00075770 0.49703474 0.04429142
0.33699715 0.66311908 0.70662094
0.32834452 0.16295145 0.71213974
0.67430997 0.83580723 0.37200827
0.84947362 0.17301151 0.70468888
0.16086611 0.82979864 0.36475093
0.84701340 0.67681659 0.71561869
0.16825299 0.33816514 0.37832760
0.98709070 0.99814221 0.03635255
0.67020986 0.34079571 0.37877987
0.50448805 0.00468922 0.04555972
0.48914403 0.49734265 0.04073241
0.99275345 0.49637142 0.04008884
0.34259463 0.67131692 0.70005375
0.32953880 0.15901423 0.71021544
0.66938284 0.83267163 0.37439444
0.83772389 0.17801920 0.70747495
0.15526298 0.83056332 0.36367448
0.84123732 0.67624462 0.71213903
0.17147875 0.33856312 0.38939306
0.98852504 0.99367959 0.03342748
0.67709167 0.34526396 0.37049970
0.49397538 0.99443604 0.04974619
0.50139830 0.50447091 0.03408408
0.99686534 0.50332896 0.03922766
0.34378413 0.67434908 0.70087419
0.33358764 0.16032824 0.70461886
0.65770137 0.82378977 0.37571000
0.82522771 0.17502099 0.70853518
0.15874700 0.83559943 0.36746564
0.82875645 0.66764544 0.71183840
0.16608315 0.33247609 0.39332120
0.00917839 0.00064296 0.03433085
0.69056974 0.35290702 0.36650592
0.49611172 0.99364560 0.05678974
0.50645308 0.50064421 0.02819182
0.00706047 0.50501249 0.04590011
0.33683396 0.66769402 0.70497579
0.33946038 0.16091853 0.70211708
0.64643283 0.81963636 0.37315815
0.82599905 0.16592112 0.70318429
0.16906800 0.84017999 0.37146964
0.82650576 0.66707144 0.71592265
0.15630100 0.33091220 0.38277632
0.02335668 0.01005969 0.03569313
0.69162492 0.35377471 0.36799123
0.50650337 0.00218726 0.05893262
0.49924312 0.48561892 0.03362534
0.00821462 0.49682734 0.04943119
0.32957212 0.66317663 0.70512712
0.34114351 0.15755426 0.70737861
0.64436382 0.82218355 0.36970767
0.83129845 0.16028352 0.70036724
0.17242950 0.83838663 0.37038318
0.83270360 0.67781307 0.71887786
0.16144929 0.33735853 0.37687703
0.00996451 0.00959094 0.03688470
0.67840398 0.34611338 0.36689591
0.50978725 0.00700870 0.05411002
0.49261191 0.47960573 0.04271801
0.99976990 0.48720450 0.04322785
0.33290369 0.66982994 0.70179178
0.34084304 0.15785129 0.71602956
0.65505478 0.82388302 0.37098275
0.83549723 0.17093794 0.70873832
0.16353954 0.83186818 0.37003193
0.83293761 0.68296883 0.71546511
0.17530228 0.33727625 0.38317488
0.99116164 0.00010996 0.03841695
0.66457928 0.33922396 0.36502386
0.49323078 0.00368700 0.04942726
0.49858313 0.48619439 0.04627268
0.99557661 0.48538255 0.03414268
0.34359482 0.68395912 0.69680558
0.33915949 0.16117252 0.71594127
0.66600443 0.82544737 0.37566572
0.83442703 0.18226974 0.71492419
0.15571546 0.82948950 0.37564212
0.82897046 0.67897031 0.71277070
0.17529191 0.33127264 0.38537998
0.99363478 0.99557025 0.03493804
0.66120920 0.33428506 0.36822836
0.48080824 0.98903117 0.04350914
0.50644683 0.49812616 0.04678150
0.00082930 0.48933349 0.02820427
0.34984049 0.69282140 0.69705698
0.33969171 0.17228112 0.70803211
0.67220345 0.82852869 0.37573462
0.83701733 0.18406818 0.71445597
0.16101156 0.83114222 0.38233912
0.82273184 0.66461884 0.71342297
0.16271486 0.33033121 0.37801604
0.01225021 0.00287550 0.03580750
0.66557645 0.33478150 0.37179079
0.48693232 0.98697425 0.03988904
0.50565149 0.50465134 0.04990996
0.00500857 0.48945910 0.02381932
0.34129572 0.67984215 0.70406548
0.34265212 0.17874032 0.70074695
0.67427438 0.83061916 0.36904757
0.84248626 0.17184185 0.70880437
0.17838967 0.83337969 0.39303554
0.82335491 0.65439214 0.71746479
0.14906457 0.33419448 0.37018124
0.02499117 0.01146293 0.03913966
0.66639306 0.33441371 0.37291862
0.49464417 0.00020160 0.04135302
0.49518966 0.50232625 0.05703645
0.00544694 0.49299381 0.02531830
0.32695209 0.66867961 0.71015573
0.34669583 0.17926772 0.69950606
0.67561099 0.83013322 0.36194634
0.83714364 0.15585048 0.70676686
0.18638812 0.83566820 0.40003029
0.82477983 0.65467434 0.71743052
0.14357504 0.33234270 0.36901245
0.01752091 0.00919437 0.03324768
0.65854687 0.32895927 0.37216679
0.49673229 0.00351523 0.04034270
0.48815855 0.49930807 0.06112088
0.00341250 0.50247851 0.03298943
0.32965302 0.67535896 0.70852199
0.34540257 0.17873469 0.70196943
0.68026794 0.82758904 0.36237317
0.82591401 0.15963312 0.71043760
0.17548902 0.83485036 0.39238203
0.82259402 0.65834568 0.70849401
0.15018468 0.32603441 0.37549129
0.00716496 0.99761413 0.03279685
0.65725326 0.32637339 0.37113842
0.49151804 0.99402207 0.03602618
0.49547000 0.50289406 0.05644397
0.00540301 0.50379367 0.03424579
0.34543341 0.68857853 0.70266888
0.33561338 0.17241260 0.69923920
0.68047110 0.83006160 0.36754311
0.82370711 0.17443842 0.71197543
0.16617321 0.83488401 0.37807065
0.81726267 0.65950391 0.70253092
0.16025040 0.32455029 0.38036918
0.00143588 0.98759677 0.04192369
0.66757726 0.32374310 0.37386827
0.48613890 0.98346688 0.03422795
0.51004304 0.51587160 0.04627426
0.00998348 0.50289537 0.03286702
0.35389581 0.68813690 0.70158492
0.32753957 0.16512865 0.69569372
0.67214267 0.84053398 0.37214193
0.83498435 0.17698242 0.71585662
0.16744906 0.83429320 0.36595659
0.81495935 0.66251282 0.70641604
0.15804889 0.32532902 0.37386435
0.00122920 0.99407204 0.05098268
0.67367013 0.31933620 0.37598569
0.49276360 0.98730935 0.03687479
0.51496864 0.51770859 0.04134505
0.00878940 0.50247243 0.03740308
0.34647166 0.67360797 0.70664532
0.32943675 0.16559615 0.70117189
0.66690278 0.85025794 0.37687749
0.84261200 0.16617055 0.71868828
0.17410686 0.83119939 0.36609429
0.82335977 0.66738397 0.71179926
0.15019817 0.33155087 0.36941566
0.00161686 0.00487425 0.05157517
0.66778008 0.31910026 0.37618404
0.49739883 0.99874732 0.03771493
0.50887631 0.50648937 0.04653373
0.00457095 0.50236498 0.04225905
0.33186439 0.66160152 0.70715008
0.33442016 0.16948081 0.70757762
0.67174444 0.85087998 0.37600101
0.83891364 0.15452953 0.71948592
0.17685341 0.82944912 0.37554303
0.83054322 0.66553862 0.71082897
0.14959337 0.33346529 0.37068940
0.99734452 0.00655762 0.04359517
0.66167179 0.32279479 0.37546060
0.49466831 0.00061402 0.03524195
0.50206849 0.50318396 0.05421676
0.00197281 0.50524389 0.04351814
0.33333738 0.66439910 0.70787384
0.33514986 0.17482648 0.70647278
0.67813624 0.84548186 0.36992616
0.83954096 0.16508138 0.71706493
0.17209403 0.83094529 0.38261333
0.83055575 0.66018362 0.70492713
0.15908089 0.32919111 0.37415170
0.99434596 0.00004067 0.03787428
0.66371544 0.32384281 0.37742754
0.48962632 0.99394182 0.03422870
0.50449444 0.50406424 0.04949578
0.00025233 0.50731244 0.04156952
0.33712002 0.66612805 0.71290335
0.32981600 0.17834145 0.69943293
0.67833182 0.84009848 0.36573356
0.84236147 0.17658871 0.71411595
0.16765827 0.82945712 0.38077316
0.83028297 0.66344800 0.70055921
0.16507611 0.32683809 0.37520504
0.99592227 0.99329199 0.04255457
0.67145583 0.32531016 0.38045953
0.49343649 0.99433943 0.03641937
0.51087895 0.50602668 0.04200487
0.99945291 0.50848907 0.04160786
0.33051720 0.66052967 0.71430640
0.32811222 0.17639928 0.69873446
0.67282910 0.84236085 0.36963754
0.83860784 0.16994214 0.71472719
0.17132630 0.82609002 0.37557755
0.83361926 0.67110012 0.70267626
0.16247777 0.33196509 0.37021135
0.99532987 0.99398895 0.04904200
0.67418485 0.33048802 0.37877309
0.50407692 0.00623243 0.03860887
0.50890475 0.50352765 0.04235084
0.00118104 0.50998421 0.04538367
0.32418947 0.65662816 0.71158320
0.33554010 0.17377477 0.70477853
0.66478172 0.84136060 0.37587120
0.83586687 0.15818733 0.71434722
0.17388632 0.83019753 0.37684792
0.83940243 0.67100767 0.70619803
0.16437580 0.33844701 0.36441920
0.99580838 0.99778138 0.04460009
0.66830557 0.33981953 0.37565708
0.50394412 0.01378736 0.03873954
0.49975273 0.49308043 0.04670163
0.00455686 0.51330941 0.04712961
0.32420731 0.65703151 0.70693288
0.34341421 0.17397909 0.71063317
0.66193187 0.83525699 0.37640650
0.83359735 0.15409589 0.70744583
0.17135222 0.83833062 0.37980980
0.84141746 0.66803964 0.70457440
0.17134610 0.34060470 0.36635567
0.99210012 0.99286512 0.03735803
0.66151339 0.34199801 0.37698451
0.49689281 0.00651249 0.03838355
0.49693619 0.49041806 0.04481822
0.00101412 0.51005393 0.04306667
0.33372293 0.66151639 0.70404772
0.33811870 0.17083760 0.71359660
0.66179747 0.83145929 0.37482933
0.83104260 0.16039353 0.70062510
0.16798381 0.83909258 0.37794369
0.83751553 0.66800265 0.70063103
0.17738062 0.33843841 0.37207340
0.99010244 0.98801872 0.03660800
0.66227258 0.33648826 0.37836911
0.49768394 0.99798693 0.03811510
0.49977102 0.49330782 0.03804647
0.99363740 0.50020750 0.03885130
0.33919056 0.66567145 0.70446316
0.32899693 0.16369184 0.71491006
0.65958075 0.83356442 0.37828251
0.83368503 0.17088791 0.69986657
0.16447080 0.82863211 0.37527114
0.83331664 0.67234065 0.70020103
0.18163235 0.33817936 0.37408631
0.99116694 0.99225396 0.04240047
0.66912435 0.33444733 0.37734138
0.50492857 0.99994519 0.04059392
0.50110230 0.49220568 0.03515876
0.99563837 0.49489108 0.04133319
0.33071988 0.66491856 0.70512461
0.32899394 0.15777264 0.71542710
0.65976485 0.83876848 0.38316727
0.83595649 0.17203364 0.70358506
0.16318212 0.82291333 0.37365132
0.83629568 0.67778700 0.70519969
0.17883030 0.33983487 0.37131448
0.99419972 0.00218547 0.04702632
0.67026825 0.33418001 0.37665522
0.51285485 0.00671326 0.04110070
0.49996294 0.49132971 0.03817580
0.00138020 0.49480482 0.04651299
0.32371055 0.66368127 0.70689680
0.33380950 0.15885302 0.71592741
0.66272347 0.83716422 0.38402812
0.83512106 0.16583586 0.70394727
0.16650345 0.83154020 0.37348643
0.84203202 0.67582576 0.70919420
0.17194390 0.33729591 0.37139592
0.99912810 0.00702378 0.04651472
0.66280826 0.33456585 0.37687333
0.51353814 0.00695885 0.03897689
0.49742281 0.49569179 0.04146595
0.00217278 0.50050124 0.04366801
0.32645681 0.66275795 0.71058231
0.33626126 0.16536766 0.71353613
0.66495000 0.82983156 0.38063693
0.83400319 0.16342727 0.70051055
0.16625417 0.84088610 0.37633681
0.84208925 0.66684863 0.70791244
0.17039780 0.33511763 0.37596933
0.00047089 0.00246133 0.04323940
0.65851669 0.33484319 0.37608029
0.50939564 0.00080338 0.03821361
0.49690115 0.50358908 0.03870032
0.99826338 0.50234634 0.04011223
0.33332736 0.66417911 0.71254460
0.33457547 0.17036970 0.71044756
0.66682417 0.82643924 0.37567300
0.83444407 0.17146991 0.70218323
0.16148767 0.83980024 0.37415898
0.83956193 0.66518673 0.70757750
0.17339336 0.33767009 0.37634774
0.99907611 0.99926618 0.04292427
0.66330180 0.33390853 0.37392368
0.50797760 0.99555044 0.04013369
0.49810941 0.50549429 0.03325741
0.99590678 0.49519709 0.04230594
0.33456354 0.66945301 0.71288562
0.33216434 0.17052981 0.70740877
0.66900794 0.82940596 0.37453229
0.83616538 0.18059631 0.70716990
0.16042119 0.83290223 0.36589548
0.83884301 0.67010461 0.70775906
0.17213352 0.33544585 0.37523661
0.00496320 0.00439376 0.04684888
0.66566708 0.33306597 0.37241127
0.50913913 0.99755643 0.04216230
0.49706454 0.49909741 0.03482603
0.00107382 0.49097821 0.04522753
0.32612829 0.67157084 0.71022219
0.33412057 0.16818660 0.70612896
0.66842669 0.83328386 0.37622848
0.83419453 0.17718022 0.70853533
0.16434255 0.83251988 0.36014229
0.83521105 0.66884229 0.71231019
0.16812378 0.32958580 0.37547969
0.00852809 0.00776658 0.04818310
0.66163291 0.33413128 0.37229543
0.50995422 0.00303270 0.04247692
0.49710465 0.49796030 0.03867180
0.00705679 0.49690112 0.04534822
0.31961053 0.66619330 0.70781984
0.33698574 0.16642474 0.70641711
0.66494395 0.83008476 0.37831079
0.82741778 0.16539229 0.70583210
0.16673319 0.84090827 0.36171055
0.83282099 0.66190492 0.71702411
0.16740366 0.32779928 0.37871241
0.00756072 0.00353241 0.04117148
0.65895548 0.33541590 0.37474557
0.50440082 0.00284384 0.04311415
0.49756816 0.50337608 0.03787334
0.00474481 0.50496232 0.04290123
0.32609679 0.66242636 0.70783189
0.33566344 0.16560325 0.70720299
0.66317052 0.82341502 0.37802116
0.82212294 0.16160152 0.70206969
0.16412054 0.84360631 0.36707392
0.83475275 0.65845281 0.71451568
0.16874763 0.33366584 0.38482009
0.00304380 0.99760550 0.03385804
0.66170109 0.33129502 0.37803077
0.49679734 0.99732899 0.04624065
0.49768424 0.50767193 0.03491115
0.99686525 0.50016200 0.04047860
0.34263472 0.66955508 0.70750439
0.32885819 0.16299835 0.70915493
0.66775657 0.82488995 0.37568486
0.82379503 0.16792206 0.70281958
0.16108527 0.83387967 0.36858085
0.83251641 0.66016523 0.71246727
0.16954412 0.34021691 0.38615978
0.99475040 0.99817557 0.03543801
0.66812619 0.32501076 0.37531635
0.49726368 0.99612716 0.04921850
0.50290663 0.50833758 0.03161770
0.99219930 0.48841425 0.04395554
0.35317420 0.68029773 0.70803456
0.32151707 0.15923468 0.70900133
0.67179811 0.83072380 0.37898589
0.83493486 0.17708038 0.70573214
0.16175516 0.82558552 0.36761798
0.83037459 0.66719322 0.71486252
0.17042992 0.33814160 0.38208400
0.99634808 0.00076182 0.03866138
0.67021775 0.32350521 0.36977785
0.49759564 0.00005627 0.05165167
0.50911710 0.50603567 0.03270595
0.99822857 0.48845946 0.05005556
0.34792785 0.68108067 0.70733089
0.32488813 0.16079402 0.70602596
0.66665796 0.82929332 0.38072454
0.83849075 0.17245773 0.70925612
0.16470208 0.82986926 0.37014732
0.83202466 0.67254672 0.71787528
0.16693394 0.33033931 0.37893167
0.00314165 0.00092561 0.03835004
0.66792042 0.33131519 0.36998671
0.49887037 0.00560799 0.05145290
0.51139986 0.51033268 0.03851470
0.00440855 0.49669527 0.04902823
0.34020588 0.67135807 0.70231305
0.33054269 0.15994602 0.70485423
0.66023980 0.82046313 0.37410932
0.82811667 0.15498642 0.71093519
0.17024189 0.84212422 0.37727190
0.83755781 0.67247369 0.71707269
0.16040453 0.32766061 0.37981096
0.00593779 0.00195465 0.03419952
0.67013270 0.34294814 0.37386712
0.50055613 0.00808088 0.04831843
0.50592416 0.51708181 0.04189101
0.00357053 0.50377207 0.03716127
0.34102752 0.66380439 0.69920282
0.32954960 0.15812856 0.70320550
0.66101423 0.81573263 0.36576900
0.82780929 0.15522390 0.70613910
0.17467208 0.84797803 0.38490279
0.83977446 0.66807290 0.70944518
0.15893734 0.33476607 0.38117399
0.00598314 0.00723803 0.03370559
0.67819319 0.34883391 0.37597672
0.49727035 0.00526551 0.04753706
0.49654395 0.51082472 0.03980805
0.99715041 0.50093260 0.02873279
0.34761043 0.66628397 0.69739687
0.33282188 0.16475381 0.70532269
0.66889300 0.82587219 0.36257022
0.83907972 0.16976008 0.70854780
0.17127134 0.83597293 0.38708059
0.83486281 0.66722797 0.70354853
0.16027934 0.34168120 0.37950228
0.99936307 0.01086406 0.03734297
0.68242909 0.34596531 0.37388645
0.49016097 0.99498238 0.04877128
0.49570428 0.49827346 0.04008297
0.99046705 0.48970889 0.03018683
0.35044510 0.67617951 0.69894104
0.33318206 0.16688151 0.70619084
0.67348959 0.84127494 0.36682402
0.84184288 0.17339396 0.71776367
0.16399299 0.82349484 0.38735699
0.82582298 0.66505993 0.70365537
0.16281869 0.33310400 0.37824585
0.99726306 0.01037894 0.04292706
0.67470964 0.34368061 0.36985755
0.48103652 0.98596741 0.04699031
0.49483681 0.49209633 0.05247617
0.99600165 0.49062887 0.03330678
0.34342224 0.67658178 0.70254235
0.33387538 0.16174847 0.70328005
0.66977255 0.84222569 0.37056235
0.82850819 0.16720214 0.72000282
0.16062742 0.82299459 0.39077651
0.81608833 0.65563160 0.70731719
0.16354569 0.31833371 0.37812959
0.00697586 0.01251930 0.04507508
0.67054808 0.35037248 0.36854731
0.48392570 0.98960047 0.04559869
0.49520477 0.49591722 0.06004389
0.00784118 0.50537243 0.03079029
0.33549739 0.66700938 0.70687792
0.34115585 0.15657338 0.70450135
0.66407667 0.82950798 0.36795232
0.81599225 0.15590743 0.71338293
0.16223313 0.82850198 0.38929629
0.81903113 0.66116473 0.70477657
0.15834200 0.31741719 0.37999693
0.01432651 0.00947278 0.04024581
0.67700959 0.35291473 0.37126056
0.48998005 0.99734917 0.04466074
0.49900998 0.49970985 0.05347304
0.01144602 0.51634231 0.02656575
0.34023964 0.66308002 0.71303042
0.34839011 0.16130546 0.71011533
0.66245490 0.82314880 0.36641726
0.82545564 0.15601915 0.70669529
0.16799610 0.82906942 0.37951836
0.82588983 0.66757796 0.70034458
0.15459677 0.32648340 0.37860462
0.01356572 0.00343825 0.03882487
0.68490630 0.34868284 0.37157686
0.48769691 0.00076825 0.04138089
0.49796623 0.49477902 0.04531166
0.00457211 0.51429389 0.02764299
0.34661885 0.66316516 0.71626818
0.35106559 0.17535689 0.71419982
0.66937209 0.83714580 0.37058410
0.84783403 0.16962867 0.71305328
0.16851816 0.82905424 0.37999450
0.82847928 0.66422957 0.70316527
0.15650797 0.33479989 0.37443662
0.00762605 0.00136165 0.04474757
0.68814526 0.34608755 0.36814060
0.48607633 0.99673693 0.03373549
0.49557704 0.48901511 0.04433817
0.00023079 0.50577048 0.03559914
0.34097218 0.66227373 0.71699193
0.34996456 0.18301858 0.70967354
0.67660867 0.85440609 0.37458481
0.85422525 0.17918956 0.72260804
0.16792263 0.84146544 0.38707280
0.82865662 0.66054305 0.71032652
0.16226376 0.33512466 0.36988980
0.00579566 0.00061186 0.05205164
0.67249817 0.33931605 0.36718243
0.48842882 0.99464264 0.02885973
0.49877613 0.48966509 0.05149068
0.00190903 0.50189655 0.04229310
0.32653269 0.66111262 0.71378042
0.34611687 0.17920932 0.70299225
0.67209121 0.85298751 0.37058863
0.84223687 0.17091138 0.71641062
0.17005853 0.84988328 0.38490518
0.82551091 0.66209585 0.71528121
0.16485512 0.33180512 0.36675332
0.01011089 0.99704741 0.04930606
0.65671841 0.33429967 0.37428130
0.49054540 0.00155500 0.02915085
0.50408707 0.49493749 0.05583948
0.99843286 0.50129685 0.03710109
0.31718914 0.65573399 0.70616878
0.33860470 0.16998747 0.70329243
0.66277276 0.84144098 0.36698340
0.82958256 0.15807980 0.71114620
0.17684175 0.83948137 0.37346327
0.82127711 0.66686077 0.71063189
0.16331789 0.33055940 0.36501824
0.01010575 0.99772198 0.04180546
0.65914089 0.32642328 0.38185463
0.49439402 0.00081910 0.03098940
0.50575115 0.50374712 0.04910596
0.00105859 0.50730788 0.03004545
0.31745997 0.64984236 0.70409755
0.33367985 0.16961065 0.70321332
0.66049873 0.84034867 0.36619240
0.83382535 0.16001435 0.71720861
0.17704477 0.82598177 0.36540046
0.82048016 0.66596374 0.70193447
0.16245884 0.32981224 0.36431732
0.99774849 0.00016650 0.03940813
0.66975407 0.31787517 0.38044117
0.50161504 0.99853215 0.03577460
0.50442358 0.50499877 0.04431076
0.00733293 0.51300322 0.03295256
0.32241109 0.65017775 0.71226938
0.33604615 0.18248767 0.69984124
0.66543860 0.85023357 0.37144571
0.84968858 0.17406943 0.72693039
0.16911312 0.82155418 0.37131095
0.82953631 0.66423533 0.69878089
0.16941660 0.33205019 0.36645030
0.98457972 0.00024432 0.04004065
0.67202071 0.31498152 0.37446824
0.50716303 0.99951978 0.04075925
0.50640034 0.50151841 0.04569696
0.00700102 0.51077463 0.04106642
0.32692228 0.65513685 0.71896673
0.33789167 0.18899133 0.69921829
0.66887069 0.85517381 0.37826194
0.85463550 0.17887058 0.72969284
0.15896019 0.82253615 0.38182988
0.83654027 0.66843242 0.70286734
0.17802290 0.33656022 0.36964030
0.98184374 0.99612083 0.04175436
0.66232766 0.31660548 0.37154873
0.50593422 0.99985694 0.04079912
0.51260593 0.50043635 0.04641721
0.00391161 0.50877901 0.04502093
0.33150851 0.66412317 0.71609357
0.33504101 0.18193766 0.70467430
0.66322377 0.84384202 0.38007184
0.84400444 0.16883741 0.72218611
0.15335582 0.82168359 0.38446434
0.83503264 0.67291669 0.70740051
0.17845581 0.33993230 0.37007823
0.99195830 0.98902283 0.04382059
0.65281790 0.32250898 0.37609011
0.49970526 0.99800628 0.03681922
0.51711796 0.50254538 0.04130832
0.00683294 0.51301030 0.04402508
0.32912372 0.66686049 0.70627137
0.32997498 0.17667505 0.71309623
0.65676856 0.82868394 0.37812959
0.83434190 0.15507652 0.71063735
0.15450590 0.81741034 0.37900119
0.83530632 0.67174852 0.70504540
0.16662412 0.33839018 0.36778273
0.00227497 0.98860557 0.04452765
0.65650291 0.32809516 0.38275810
0.50002616 0.99573286 0.03499135
0.51523410 0.50400743 0.03693653
0.00948949 0.51195622 0.04398804
0.31991510 0.65703519 0.70036971
0.32611676 0.17529914 0.71792361
0.66403240 0.83038020 0.37719484
0.82586884 0.15147610 0.70431548
0.16461468 0.82062966 0.37278713
0.83966091 0.66844252 0.70127738
0.16338973 0.33878586 0.36813470
0.00056119 0.99568857 0.04392783
0.66511752 0.32797692 0.38060748
0.50913626 0.00252854 0.03526061
0.51430866 0.50116052 0.03958104
0.00599993 0.50656340 0.04705038
0.32202107 0.65582989 0.70352548
0.32450085 0.17461732 0.71489842
0.67624357 0.83894520 0.37910939
0.82543680 0.16160755 0.70402479
0.17471072 0.83094476 0.37166016
0.84332596 0.66927113 0.70255322
0.17514349 0.34462825 0.36974514
0.99330587 0.00113237 0.04195357
0.66554830 0.32570329 0.37456090
0.51182988 0.01303088 0.03787363
0.51170352 0.49637455 0.04526721
0.00037129 0.50328982 0.05125450
0.32934441 0.66442038 0.70981299
0.32866776 0.17178274 0.70986968
0.67524644 0.83730407 0.38028580
0.83372829 0.17370862 0.70150726
0.17498544 0.83975658 0.37480027
0.84505748 0.67447714 0.70568921
0.18135409 0.34779009 0.37032948
0.99014980 0.99776228 0.03832429
0.65783642 0.32465328 0.37583061
0.50324657 0.01407992 0.04017081
0.50270534 0.49502696 0.04473359
0.99771484 0.50145012 0.05082737
0.33264782 0.67204537 0.71173351
0.33517970 0.16383164 0.70966015
0.66486476 0.82980220 0.37755524
0.83249398 0.17224063 0.70126162
0.16810128 0.83946926 0.37538613
0.84409254 0.67592334 0.70585911
0.17432682 0.34086153 0.36924335
0.99350813 0.99053811 0.04025083
0.65420564 0.32579022 0.38051501
0.49480294 0.00700115 0.03874406
0.49557170 0.49695068 0.03973035
0.99656519 0.49914886 0.04555957
0.33444015 0.67377540 0.70936914
0.33382031 0.15684152 0.71179195
0.66123585 0.82669008 0.37431072
0.82391088 0.16542698 0.69999587
0.16542680 0.83054754 0.37354839
0.84181128 0.66887652 0.70109839
0.16524264 0.33094873 0.36949450
0.99693132 0.99496477 0.04714661
0.66015750 0.32884491 0.38046370
0.49977774 0.00106596 0.03957028
0.49548938 0.50137566 0.03619305
0.99554643 0.49534877 0.04207676
0.33470939 0.66739569 0.70880829
0.33222604 0.15878064 0.71297583
0.66889720 0.83230586 0.37467673
0.81971797 0.16312331 0.69997345
0.17266912 0.82959711 0.37291931
0.84290773 0.66457120 0.70152922
0.16443981 0.32798966 0.37187028
0.99702664 0.00708229 0.04686515
0.66636313 0.33224372 0.37523505
0.51096624 0.99988599 0.04139613
0.49811497 0.50431809 0.03640201
0.99449602 0.49367659 0.04157625
0.33397134 0.66379400 0.71337942
0.33702691 0.16717175 0.71141207
0.67413019 0.83608373 0.37713082
0.82441488 0.16723888 0.70099190
0.17781492 0.83822485 0.37104346
0.84386615 0.66718846 0.70825418
0.17329912 0.33342833 0.37613908
0.99791587 0.00943325 0.04442648
0.66556149 0.33687889 0.37196227
0.51088603 0.99965259 0.04207056
0.49805853 0.50381652 0.04139804
0.99485950 0.49607911 0.04285609
0.33554786 0.66817270 0.71462743
0.33595985 0.16646635 0.70913921
0.67021644 0.83292308 0.37898710
0.83229207 0.17058605 0.70148352
0.17031092 0.84241604 0.37021311
0.83977560 0.67176404 0.71365857
0.17768708 0.33777953 0.37953765
0.00079971 0.00081062 0.04461899
0.66670673 0.34343345 0.37631277
0.49959299 0.99481693 0.04062545
0.49492249 0.50305104 0.04257889
0.99964810 0.49784470 0.04300299
0.33731798 0.67174231 0.70987210
0.33370800 0.15984522 0.70999964
0.66353263 0.82885342 0.37748805
0.83441498 0.16737559 0.70290107
0.15959312 0.83910099 0.36947548
0.83553251 0.67079140 0.71510375
0.16989033 0.33253573 0.37956783
0.00603747 0.99469499 0.04456519
0.67017309 0.34520691 0.38034399
0.49583016 0.99501313 0.04070245
0.49306100 0.50366712 0.03576868
0.00059355 0.49542148 0.04128171
0.33730238 0.67191700 0.70515898
0.33524336 0.16000373 0.71054056
0.66233855 0.82931694 0.37443828
0.83702579 0.16473639 0.70584621
0.16014307 0.83445116 0.36783916
0.83305510 0.66640860 0.71248886
0.15975157 0.32581780 0.37912632
0.01075381 0.00116921 0.04118371
0.67421400 0.34312345 0.37775693
0.50623047 0.00158192 0.04397888
0.48924715 0.50095744 0.03185147
0.99805376 0.49298517 0.04261744
0.33375142 0.66658280 0.70342512
0.33483192 0.16295624 0.70989729
0.66808340 0.83161220 0.37494999
0.83850268 0.16728378 0.70847242
0.16801895 0.83599435 0.36688515
0.83145501 0.66451512 0.71173921
0.16200217 0.32871980 0.38077992
0.00839760 0.00766694 0.03451477
0.67306105 0.33823059 0.36982375
0.50882906 0.00580614 0.04541924
0.49000397 0.50040838 0.03448507
0.99787223 0.49424923 0.04391080
0.32912800 0.66251253 0.70802026
0.33459598 0.16562519 0.70611862
0.67017051 0.82940425 0.37766463
0.83739264 0.17376557 0.70947803
0.17153557 0.84389667 0.36882598
0.82882332 0.66681503 0.71363498
0.17269267 0.33767377 0.38157998
0.00122135 0.00231810 0.03318559
0.67003201 0.33404600 0.36593324
0.49480469 0.00507089 0.04636626
0.49611243 0.50238793 0.03816433
0.99848575 0.49795810 0.04420748
0.33020868 0.66481595 0.71103877
0.33254701 0.16330634 0.70113855
0.66167268 0.82468442 0.37563720
0.84257639 0.17995846 0.71071705
0.16642582 0.84346286 0.37374977
0.82872183 0.67228633 0.71570063
0.17455543 0.34231520 0.38022235
0.99812289 0.99420952 0.03625135
0.67035079 0.33161500 0.37134597
0.48211839 0.99845631 0.04658061
0.49675399 0.50005828 0.03722882
0.99982750 0.49973670 0.04392169
0.33693090 0.67177942 0.70474537
0.32889327 0.15735754 0.70148135
0.65309586 0.82572519 0.36885790
0.84350727 0.17468318 0.71269768
0.15863426 0.83389718 0.37794887
0.82839587 0.67042510 0.71762063
0.16504793 0.33482586 0.37794997
0.00011030 0.99633891 0.04015025
0.67557219 0.33206496 0.37708214
0.48802582 0.99389627 0.04456512
0.50045778 0.49642184 0.03475956
0.99858930 0.49526518 0.03989406
0.34227442 0.67648500 0.69857496
0.32723329 0.15824524 0.70332095
0.65503625 0.82968085 0.36541688
0.83518781 0.16341697 0.71034625
0.15964239 0.82864839 0.37719526
0.82797306 0.66273801 0.71473867
0.16095697 0.32641859 0.37919420
0.00073203 0.00484462 0.04176890
0.67791682 0.33336460 0.37480492
0.50294490 0.99798234 0.04714858
0.50866417 0.50136655 0.04015713
0.00122644 0.49128809 0.03588231
0.34138031 0.67282621 0.69890055
0.32970720 0.16479871 0.70467011
0.66780187 0.83401221 0.36927617
0.83001140 0.16196345 0.70637658
0.16885369 0.83584167 0.37574160
0.83169712 0.66124455 0.71153633
0.16362407 0.32719597 0.38315714
0.00228226 0.00832553 0.03770455
0.67671817 0.33542665 0.36957237
0.50806675 0.00434269 0.04995241
0.51421142 0.51030529 0.05012391
0.00679537 0.49556842 0.03281564
0.33978814 0.67039005 0.70636136
0.33401800 0.16965216 0.70376644
0.67267779 0.83367718 0.37320249
0.82766850 0.16864666 0.70306140
0.17221446 0.84421525 0.37561033
0.83162576 0.66371355 0.71081721
0.16578249 0.33426646 0.38212065
0.00426081 0.00795255 0.03807749
0.67047009 0.33182990 0.36889519
0.49629140 0.99994833 0.04767642
0.51259239 0.50771493 0.05594466
0.00595198 0.49981476 0.03281224
0.34451179 0.67974865 0.71209540
0.33274418 0.17141571 0.70065882
0.66634681 0.83204960 0.37287216
0.82943275 0.17337849 0.70346467
0.16550435 0.83798496 0.38256179
0.82661441 0.66405244 0.71031852
0.15749870 0.33522353 0.37510773
0.00462604 0.00668697 0.04343271
0.66712207 0.32788915 0.37125794
0.48489507 0.99060932 0.04240233
0.50278171 0.49348062 0.05168489
0.99886094 0.49594180 0.03628651
0.34994997 0.69036354 0.71079937
0.33246496 0.17141294 0.70240647
0.66717207 0.83847084 0.36919998
0.83806104 0.17611791 0.70956740
0.15396787 0.81926137 0.39003126
0.82178125 0.66098604 0.70830934
0.14591561 0.32693644 0.37006058
0.00718005 0.00445035 0.04273622
0.66815620 0.32793284 0.37094663
0.49438849 0.99363355 0.03848762
0.49871761 0.48604062 0.04436192
0.99393680 0.49089848 0.03786194
0.34892589 0.68580493 0.70639580
0.33933983 0.17472651 0.70818400
0.67759333 0.84486641 0.36878650
0.84045157 0.17373829 0.71547247
0.15353194 0.81273126 0.38907871
0.81947358 0.65962089 0.70098862
0.14411037 0.32030675 0.37082498
0.01529106 0.00933395 0.03920204
0.66542689 0.32865669 0.36918044
0.50894838 0.00503127 0.04015200
0.50397533 0.49150154 0.04290713
0.99878213 0.49357414 0.03918221
0.33858609 0.66437049 0.70069950
0.34353464 0.17794966 0.71174548
0.68788956 0.84039819 0.37404490
0.83163396 0.16748873 0.71847083
0.16552789 0.82277864 0.38571483
0.82553141 0.66429033 0.69534647
0.15302008 0.32820702 0.37431325
0.02082189 0.01545697 0.03704823
0.66068742 0.33291469 0.37096309
0.49822223 0.00730352 0.03453781
0.50715437 0.50257192 0.04920330
0.01113219 0.50684532 0.03956701
0.32627241 0.64766114 0.70251018
0.33794140 0.17590572 0.70836498
0.68960590 0.83592794 0.37366582
0.82148007 0.15688841 0.71864493
0.17284989 0.83667018 0.38316385
0.83460019 0.67120499 0.69557825
0.16322190 0.34209486 0.37467498
0.01330775 0.01096951 0.03923872
0.66089407 0.33828905 0.37895747
0.47717468 0.99582172 0.02831506
0.50627947 0.50878233 0.05571424
0.01340803 0.51625754 0.03991470
0.32284453 0.65339040 0.71069848
0.33214144 0.17431449 0.70559545
0.68033395 0.83756749 0.36812236
0.82263209 0.15176511 0.71594720
0.16912598 0.83883036 0.38032807
0.83500031 0.66911292 0.69633742
0.16412276 0.34767370 0.37731200
0.99945248 0.99972485 0.04244931
0.66350407 0.33693738 0.38837594
0.47406219 0.97994386 0.02748759
0.50229484 0.50200244 0.05740773
0.00101478 0.51142560 0.03687338
0.33209979 0.66723365 0.71235725
0.33724902 0.17659043 0.71007149
0.67309781 0.84295846 0.36724188
0.83365144 0.15667374 0.71488716
0.16499875 0.83435420 0.37827245
0.82698595 0.66052210 0.69575528
0.15467423 0.33890557 0.38137355
0.99131209 0.99164370 0.04197309
0.66719285 0.33600549 0.38861333
0.48837472 0.97429722 0.02618848
0.50256556 0.49476963 0.05164584
0.99145629 0.50410781 0.02909754
0.34056346 0.66850242 0.71010266
0.35077422 0.18048083 0.71484750
0.67529415 0.84893601 0.37093282
0.84084455 0.16152102 0.72256612
0.17818202 0.83560158 0.37659286
0.82021810 0.65629429 0.69806222
0.15691668 0.32985882 0.37482711
0.99600948 0.99611018 0.04087079
0.66164019 0.33211228 0.38123638
0.50323028 0.98967032 0.02838937
0.50617128 0.49645883 0.04652075
0.98952117 0.50569578 0.02364758
0.33503057 0.66375611 0.71407205
0.35829761 0.18545749 0.71088535
0.67438712 0.84497934 0.37588551
0.83724042 0.16042859 0.72654858
0.19124453 0.83446712 0.37520263
0.82649242 0.66124553 0.70407875
0.17356811 0.33135371 0.36293664
0.00344845 0.00127518 0.04227154
0.65970584 0.33538855 0.37950157
0.50230994 0.00421928 0.03274359
0.50674228 0.50868758 0.04446148
0.99356060 0.51420059 0.02380786
0.32086819 0.65591214 0.71904500
0.34566442 0.18232050 0.70401824
0.66872265 0.84070786 0.37910832
0.82872914 0.15786775 0.71825516
0.18607666 0.83187546 0.37593510
0.84411751 0.67094861 0.70860169
0.17762281 0.33039839 0.35895204
0.00197487 0.00008089 0.04628652
0.66549358 0.33303032 0.38022113
0.49367339 0.00082125 0.03545929
0.50070730 0.50930003 0.03888780
0.00294382 0.52033370 0.03643348
0.31405147 0.65247822 0.71823055
0.33313071 0.17468351 0.70521414
0.66188813 0.84371153 0.37745628
0.83211954 0.16503493 0.71133625
0.17482499 0.83331139 0.37373841
0.84667490 0.66914384 0.70730702
0.16737340 0.32830535 0.36026151
0.99305441 0.99958021 0.04844269
0.66376870 0.31969149 0.37620502
0.49395831 0.99501937 0.03804339
0.49469248 0.49445065 0.03307621
0.00634103 0.51741687 0.05685033
0.32050628 0.65703453 0.70864361
0.33435322 0.17066523 0.71292795
0.65886047 0.84602052 0.37369775
0.85134113 0.17717475 0.71372696
0.16648242 0.83202798 0.37150169
0.83527844 0.66406495 0.70425263
0.15908855 0.33118530 0.36702451
0.98142182 0.99268829 0.04160248
0.65339551 0.31198335 0.37479308
0.50530099 0.00157399 0.03956077
0.49629014 0.48927535 0.03620024
0.99868559 0.51457261 0.06025840
0.32836806 0.65930108 0.69899905
0.34070962 0.16644319 0.72018102
0.66307790 0.84696634 0.37180511
0.85224816 0.17195962 0.71400054
0.16811874 0.82962263 0.37056992
0.83177579 0.67065850 0.70155902
0.16066679 0.33556752 0.37140889
0.98312194 0.99003546 0.03390891
0.65509481 0.32081686 0.37431324
0.51452438 0.01446891 0.03580408
0.50197799 0.49215563 0.04331713
0.99702992 0.51399756 0.04756327
0.32496367 0.65779541 0.70024985
0.34027987 0.16544693 0.71803292
0.66847483 0.84141330 0.37941324
0.83683363 0.15747708 0.70728180
0.17221092 0.82919360 0.37149296
0.83181753 0.67428632 0.70214589
0.17300588 0.33690787 0.36959901
0.99337061 0.99242737 0.03472159
0.66308990 0.33659660 0.37343064
0.51382205 0.02186124 0.03460571
0.50609549 0.49888939 0.04753846
0.00260823 0.51393386 0.03906431
0.32185864 0.65661905 0.70702183
0.32721079 0.16332098 0.71177000
0.66822113 0.83322213 0.38839190
0.83088202 0.15299305 0.69900799
0.16955247 0.83100882 0.37683388
0.83459328 0.67121811 0.70373331
0.17830095 0.33307956 0.36791357
0.99470913 0.99227418 0.03941021
0.67143074 0.34357054 0.37471084
0.50928174 0.01574252 0.03900613
0.50436166 0.50742811 0.04519412
0.00726038 0.50844868 0.04293541
0.32613825 0.66218909 0.71144948
0.31790572 0.16161477 0.71113758
0.65947710 0.82954297 0.38220163
0.83389687 0.16330052 0.69922714
0.16463059 0.83449110 0.37950963
0.83697295 0.66505776 0.70529127
0.17258772 0.33081357 0.36850907
0.98748500 0.99504100 0.04467440
0.66926261 0.33223111 0.37243018
0.50818018 0.00523270 0.04403438
0.50040197 0.50479779 0.04084629
0.00553637 0.49708066 0.05048041
0.33270600 0.67049446 0.70979950
0.32561909 0.16665037 0.71396678
0.65948141 0.82833877 0.37397856
0.83856613 0.17451163 0.70393034
0.15908331 0.83191882 0.37832500
0.83319710 0.66170832 0.70408394
0.17650993 0.33729298 0.37643270
0.98723395 0.00142615 0.04575835
0.66048570 0.32401606 0.37312917
0.51080623 0.00111125 0.04296015
0.50202567 0.49851446 0.03982204
0.00432698 0.49592927 0.04737270
0.33624136 0.67245173 0.70625730
0.33644609 0.16773029 0.71381863
0.67220996 0.83293505 0.37400964
0.84084639 0.17275668 0.70330010
0.15737066 0.82776859 0.37424053
0.83349631 0.66596250 0.70454485
0.17876254 0.34037302 0.38011460
0.99837485 0.00649890 0.04136227
0.65656111 0.32933090 0.37468977
0.51078951 0.00280676 0.04233840
0.50200282 0.49905160 0.03812020
0.00385638 0.50210471 0.03855193
0.33613762 0.67157607 0.70737613
0.33990422 0.16513157 0.70992810
0.67279617 0.83458790 0.37801387
0.83393403 0.16683667 0.70048528
0.16211291 0.83200290 0.36750574
0.83664215 0.66887662 0.70884581
0.17673266 0.33532902 0.37848938
0.00816798 0.00889567 0.03926327
0.65876858 0.33688709 0.37637992
0.50416236 0.00142902 0.04312705
0.49741655 0.50357833 0.03789696
0.00098001 0.50108067 0.03842392
0.33661304 0.67145071 0.70982250
0.33278758 0.16331241 0.70585135
0.66426538 0.82901905 0.38114147
0.82828793 0.17012006 0.69911470
0.16280196 0.83477859 0.36582470
0.83840526 0.66673408 0.71177793
0.17099455 0.33168754 0.38052574
0.00440699 0.00742206 0.03929976
0.66501667 0.33789000 0.37787704
0.49571531 0.99391072 0.04326950
0.49789617 0.50871732 0.04041714
0.00002919 0.49503988 0.04635088
0.33478809 0.67008058 0.70825249
0.32760910 0.15993411 0.70686732
0.66169163 0.82696204 0.37767191
0.82875268 0.17833249 0.70044637
0.16341666 0.83351753 0.36859723
0.83856397 0.66384889 0.71209704
0.16359692 0.33620889 0.38180080
0.99749026 0.00138486 0.03985583
0.66827865 0.33042029 0.37764060
0.49440060 0.99170398 0.04321519
0.49945783 0.50619958 0.04011624
0.00085434 0.49237843 0.04949106
0.33270368 0.67215984 0.70472107
0.33483641 0.16360103 0.71016370
0.66768616 0.82812362 0.37275969
0.83011497 0.17760915 0.70404877
0.16538815 0.83531680 0.36853177
0.83430231 0.66314806 0.70883512
0.16337944 0.34025193 0.38265265
0.99981860 0.99681351 0.03906523
0.66659400 0.32787620 0.37579422
0.49918021 0.99971805 0.04224422
0.50296557 0.50061288 0.03612704
0.00066109 0.49511482 0.04314843
0.33558449 0.67383150 0.70279594
0.33893403 0.16495271 0.71124371
0.67319878 0.82809112 0.37320127
0.82746309 0.16644086 0.70610270
0.16577291 0.83774552 0.36951124
0.83415111 0.66827373 0.70903449
0.16750690 0.33612011 0.38000566
0.00881291 0.99964063 0.03852952
0.66886480 0.33384178 0.37394953
0.49956439 0.00237034 0.04342119
0.50587956 0.50305847 0.03353646
0.99998032 0.49720847 0.03711786
0.33880419 0.67242273 0.70607258
0.33279590 0.16066835 0.70643272
0.66815971 0.82486563 0.37595320
0.82363377 0.16043569 0.70631644
0.17056838 0.84125293 0.37379382
0.83686394 0.67023602 0.71531666
0.16774577 0.33058695 0.37287216
0.01340355 0.00740219 0.04102421
0.67456324 0.33946991 0.37126055
0.49687528 0.99883073 0.04898425
0.50206349 0.50885994 0.03468024
0.99555879 0.49150130 0.03949815
0.33856683 0.66947835 0.71051479
0.32526227 0.16062775 0.70047315
0.65958401 0.82324998 0.37528591
0.82597939 0.16419475 0.70754115
0.17193540 0.84193380 0.37786907
0.83619877 0.66604617 0.71826880
0.16355263 0.33240602 0.37319250
0.00539566 0.00608939 0.04447910
0.67880266 0.34302723 0.37104918
0.49645532 0.99925930 0.05043928
0.49722345 0.51003949 0.03783701
0.99198542 0.48466839 0.04440823
0.33649653 0.66511726 0.70922213
0.32665620 0.16595112 0.70096132
0.65954560 0.82783821 0.36995096
0.83345132 0.17010291 0.71119609
0.16558164 0.83952976 0.37687799
0.83499185 0.66552663 0.71781249
0.16071128 0.33737811 0.37914564
0.99638627 0.00133747 0.04554429
0.67900477 0.34184967 0.37132560
0.49530007 0.99808313 0.04662992
0.49858439 0.50236098 0.03962347
0.99660190 0.48645177 0.04302665
0.33657635 0.66516100 0.70563465
0.33689916 0.16859736 0.70455629
0.66603358 0.82989401 0.36853701
0.83684844 0.17181903 0.71357711
0.16095492 0.83851251 0.37209396
0.83299089 0.66904703 0.71596913
0.16481967 0.33828636 0.38156941
0.00287289 0.00500319 0.04314348
0.67311284 0.34009194 0.37129234
0.49544974 0.99572360 0.04502942
0.50224617 0.49435940 0.04020786
0.00192867 0.49545560 0.03459788
0.34041074 0.66932901 0.70526358
0.33930830 0.16332775 0.70563493
0.67042052 0.82747747 0.37144102
0.83624990 0.16790881 0.71040880
0.16108958 0.83711776 0.37018222
0.83307704 0.67263224 0.71228483
0.16894340 0.33318951 0.38104952
0.01413944 0.00841678 0.03772901
0.67046903 0.34576952 0.37211357
0.49567154 0.99510498 0.04891747
0.50256073 0.49835423 0.04239136
0.99980854 0.50229857 0.02836916
0.34135761 0.66841784 0.70969113
0.33238643 0.15797579 0.70411725
0.66551666 0.83065318 0.37256045
0.83372383 0.16441682 0.70559875
0.16966273 0.83565008 0.37484804
0.83405000 0.67182545 0.71023157
0.16504216 0.32739769 0.37763780
0.01426155 0.00447616 0.03581390
0.67355637 0.34622662 0.36978001
0.49423300 0.99657069 0.05268980
0.49708865 0.50593413 0.04634906
0.99489461 0.50047707 0.03414271
0.33744487 0.66544147 0.71206961
0.33152454 0.16215059 0.70253680
0.65982842 0.83414917 0.37121197
0.83308131 0.16755320 0.70557188
0.17850439 0.83451218 0.38278621
0.82783314 0.66554686 0.71019787
0.16135833 0.33135485 0.37671180
0.00290391 0.99878172 0.03738309
0.67487072 0.33981654 0.36754533
0.49351547 0.00037455 0.04804996
0.49292876 0.50080875 0.04640011
0.99442592 0.49830768 0.04111182
0.33267760 0.66239429 0.70890166
0.33761460 0.16894000 0.70623305
0.66535851 0.83445161 0.36654969
0.83425567 0.16829966 0.71000874
0.17796676 0.83265822 0.38315140
0.82134022 0.66493757 0.70820477
0.16062839 0.33991489 0.37873163
0.99536468 0.99662955 0.03754234
0.67019093 0.33260683 0.36898160
0.49730387 0.00262601 0.03783505
0.49455542 0.49114852 0.04400850
0.00161138 0.50487113 0.03955877
0.33143366 0.66351516 0.70642532
0.34148492 0.17067807 0.71284599
0.67056094 0.83411787 0.36652915
0.83190691 0.15993850 0.71370739
0.17256726 0.83465160 0.37602734
0.82172357 0.66896695 0.70414331
0.16227930 0.34095817 0.37844390
0.00369490 0.00267668 0.03843891
0.66357944 0.32810429 0.37311015
0.50486905 0.00539363 0.03338593
0.49727184 0.48957613 0.04527811
0.00654455 0.50936787 0.03370679
0.33732118 0.66874534 0.70686655
0.33269078 0.16718807 0.71216444
0.66635999 0.83359748 0.37371022
0.83107503 0.15362240 0.71209975
0.16825686 0.83719382 0.37420344
0.82429372 0.67010377 0.70043013
0.16498972 0.33602202 0.37514945
0.01117714 0.00513986 0.04367996
0.66690234 0.33141688 0.37987130
0.50952466 0.00541168 0.03687806
0.49720459 0.49891288 0.05221047
0.00440571 0.50459683 0.03218882
0.34296813 0.67055564 0.70905521
0.32186510 0.16338559 0.70326256
0.66229385 0.83913138 0.37664955
0.83658140 0.15764230 0.70934538
0.17082385 0.83227651 0.37950622
0.82818594 0.66771142 0.70169657
0.15919779 0.32617300 0.36651230
0.00568734 0.00077031 0.04822208
0.67573473 0.33387975 0.38247032
0.50809737 0.00572249 0.04205721
0.49145798 0.50544287 0.05954237
0.00141043 0.49693203 0.03782730
0.33705286 0.66785837 0.71104973
0.32814508 0.17168094 0.69702301
0.66656106 0.84847916 0.37183273
0.84248913 0.16728637 0.71219771
0.17251511 0.82482673 0.38409190
0.83078286 0.66366273 0.70195308
0.15532444 0.32268712 0.36411861
0.99810864 0.99583165 0.04781974
0.67616847 0.33120975 0.38342609
0.50263206 0.00826315 0.03565408
0.48820877 0.49589236 0.05505002
0.00319094 0.49796862 0.04204642
0.33092371 0.66886748 0.70910434
0.34000659 0.18343528 0.70180362
0.67635399 0.84860715 0.36376977
0.84497987 0.17512964 0.71850146
0.16019668 0.82249240 0.37944052
0.83248276 0.66451312 0.69713040
0.16155214 0.32898625 0.37068972
0.99451219 0.99281992 0.04575806
0.66945767 0.33029087 0.38519120
0.49788852 0.00419769 0.02281462
0.50264082 0.48443381 0.04470265
0.00862804 0.51191325 0.04215371
0.33071398 0.67446823 0.70642439
0.34048116 0.18336163 0.70753359
0.67869377 0.84752073 0.36369861
0.84732114 0.17858806 0.71997601
0.14998648 0.82764084 0.37476388
0.83520852 0.66510561 0.69345442
0.16922922 0.33093881 0.37061654
0.00090840 0.99838389 0.04710608
0.65812552 0.32558599 0.38379036
0.49791126 0.99738851 0.02784281
0.51471533 0.48526311 0.04025780
0.01288204 0.52216569 0.04186839
0.33302922 0.67869786 0.71051387
0.33276109 0.17824387 0.70540817
0.67304223 0.84596075 0.37339676
0.84828755 0.17640609 0.71201504
0.15130760 0.82787548 0.38040630
0.83464246 0.65826972 0.69567470
0.16890231 0.32926470 0.36542289
0.00260454 0.00027058 0.04955631
0.65254492 0.32347889 0.37703654
0.49929714 0.99812618 0.04034531
0.51431882 0.49893940 0.04055163
0.00902906 0.51830795 0.04636050
0.32909857 0.67330937 0.71631931
0.32881288 0.17882296 0.70166175
0.66886955 0.84689931 0.37908968
0.84537059 0.16967144 0.70398522
0.15943496 0.81992866 0.38997000
0.82821994 0.65116814 0.70165263
0.16382899 0.33186179 0.36113857
0.98631387 0.99043479 0.05276864
0.65916095 0.31570907 0.36856879
0.50224337 0.00544432 0.04063872
0.51117116 0.51177855 0.03845014
0.00656191 0.50824860 0.05151679
0.32049965 0.66138269 0.71713417
0.33631855 0.18853668 0.70717505
0.67127662 0.84590993 0.37864231
0.83659244 0.16325921 0.70879164
0.17012223 0.81789931 0.38951239
0.82299208 0.65103598 0.70898947
0.17225338 0.33835391 0.36265632
0.97014966 0.98112714 0.05156206
0.66303104 0.30934906 0.37210410
0.50289225 0.01191423 0.03105808
0.50777372 0.50432839 0.03199995
0.01275091 0.50676431 0.04651875
0.31560863 0.65053720 0.71090043
0.34403711 0.19833995 0.71869750
0.67001497 0.83901670 0.37698764
0.83438079 0.15878995 0.71815372
0.17422306 0.82732492 0.37570037
0.82929671 0.65863807 0.70808511
0.18809252 0.34626896 0.37190761
0.97199537 0.98259688 0.04628850
0.66055968 0.32444113 0.38316307
0.50355238 0.00855549 0.02459391
0.50813902 0.49167325 0.03131031
0.01152392 0.50957738 0.03859604
0.32497569 0.65045064 0.70443358
0.34202204 0.19431972 0.72733275
0.66195926 0.83389166 0.37777698
0.84281175 0.16292156 0.71721248
0.17323950 0.84132635 0.36284354
0.84837681 0.67278506 0.70051538
0.19215271 0.34819231 0.37684624
0.99052040 0.99838626 0.03711769
0.65994715 0.33594948 0.38551772
0.50418023 0.99567968 0.03247543
0.49990646 0.48972752 0.04360132
0.00469237 0.50598964 0.03761857
0.34082196 0.65873348 0.70625645
0.33555673 0.17931476 0.72294635
0.65345337 0.83026352 0.38455974
0.84583079 0.16930821 0.70725847
0.16520298 0.83167751 0.36559218
0.85933642 0.68087604 0.69919512
0.19101515 0.34504571 0.37326811
0.00207853 0.00515212 0.03531347
0.65962063 0.32911717 0.37893667
0.50441287 0.99083125 0.04110336
0.49155013 0.49841654 0.05323770
0.99916889 0.50342604 0.04137637
0.33954049 0.66365440 0.71340891
0.32914342 0.16843951 0.71327153
0.65365472 0.83372862 0.38540455
0.83675115 0.16652965 0.69979696
0.16035972 0.81343641 0.37489042
0.85207459 0.67259911 0.70663022
0.18291392 0.34335855 0.36960709
0.99157584 0.99918746 0.03875338
0.65962465 0.32409190 0.37006915
0.49946567 0.99337748 0.04233153
0.49310324 0.50319502 0.04837312
0.99486671 0.50358648 0.04537761
0.32355250 0.66342515 0.72034603
0.32548514 0.16818049 0.71394107
0.66027368 0.83676846 0.38103620
0.82630627 0.16079886 0.70173597
0.16889467 0.81983950 0.37521632
0.84552042 0.66914047 0.71271136
0.17245068 0.33339423 0.36854537
0.98915401 0.00092139 0.04180525
0.65947332 0.33319971 0.36771258
0.49172932 0.99911471 0.03548765
0.49908012 0.49921076 0.03527036
0.99648051 0.50545361 0.04470488
0.31615454 0.66414223 0.71664902
0.32630681 0.16659924 0.72464237
0.67202958 0.83301424 0.37808966
0.82522714 0.16208459 0.70799120
0.17551592 0.83774170 0.36822199
0.84639370 0.67325494 0.71234353
0.16710220 0.32260143 0.36695020
0.00127808 0.00820716 0.03910952
0.66644070 0.35169689 0.37252731
0.49478112 0.00227431 0.03030697
0.50403887 0.49663111 0.03043160
0.99769433 0.50650976 0.04239853
0.32532693 0.66785459 0.70552412
0.33253503 0.16134558 0.72486451
0.68109389 0.83067980 0.37762437
0.83263968 0.16690652 0.70771054
0.17318740 0.84470933 0.36318950
0.85183373 0.67500337 0.70826837
0.16423756 0.32687647 0.36878607
0.00811986 0.00905281 0.03582247
0.67505456 0.35894462 0.37262691
0.50435403 0.99832358 0.03818216
0.50370565 0.49982785 0.03842594
0.99471273 0.50246381 0.04443440
0.33192880 0.66923551 0.69823905
0.34237955 0.15979198 0.71388386
0.67953488 0.83775228 0.38267716
0.83724125 0.16488718 0.70022793
0.17077030 0.83769925 0.36377525
0.85091014 0.66822532 0.70889997
0.16138925 0.33606880 0.37512111
0.00420528 0.00347779 0.03628653
0.66651104 0.33980065 0.37044510
0.50611629 0.99337593 0.04861645
0.49561603 0.50247020 0.04596192
0.99278262 0.49810587 0.04652136
0.32599455 0.66627073 0.70018680
0.34777059 0.16477086 0.70965759
0.67408061 0.84195556 0.38485575
0.83215460 0.15925453 0.69563646
0.16733521 0.82709064 0.36793191
0.83595767 0.66119626 0.71298722
0.15943782 0.33859649 0.38131059
0.99379914 0.99689395 0.04102971
0.65977068 0.32390218 0.37307875
0.50669054 0.99462229 0.04650225
0.49228259 0.50570725 0.04265708
0.99090987 0.49180662 0.04670244
0.31971245 0.66098348 0.70657221
0.34360651 0.16750816 0.71407459
0.67046159 0.83562787 0.37931625
0.82546119 0.16305624 0.70037011
0.16550134 0.83315988 0.37201706
0.82317158 0.66493939 0.71437737
0.16293966 0.33509284 0.38194390
0.99336216 0.00050481 0.04491123
0.66411993 0.33081951 0.37614717
0.50846878 0.00195347 0.04095361
0.49334760 0.50221773 0.03481132
0.99558101 0.48858593 0.04461348
0.32395332 0.66105292 0.70665095
0.33615630 0.16360232 0.71454684
0.66653838 0.82389900 0.37120393
0.82626865 0.17510362 0.70680102
0.16684721 0.84676226 0.37305913
0.82831437 0.67088172 0.71034560
0.16943180 0.33429174 0.38062812
0.00307264 0.00531583 0.04427064
0.67068478 0.34681534 0.37681651
0.50876153 0.00337079 0.04197063
0.49627510 0.49924614 0.03204095
0.00297628 0.49182995 0.04193511
0.33658458 0.66610439 0.70084699
0.33466758 0.16079602 0.70715021
0.66298354 0.82316868 0.36810635
0.83082252 0.18005887 0.70599154
0.16385809 0.84474458 0.37326334
0.84053042 0.67616748 0.70743541
0.17121997 0.33406623 0.38151545
0.00687597 0.00144176 0.04095615
0.67087076 0.34652501 0.37596687
0.50751273 0.99584685 0.05174008
0.49758936 0.50491471 0.03635797
0.00337150 0.49334771 0.04259510
0.34593661 0.67139613 0.70072417
0.33498625 0.15966794 0.69696530
0.66201594 0.83172800 0.37276757
0.83167413 0.17293984 0.70035154
0.16047277 0.83340490 0.37666581
0.83878066 0.67207179 0.70944885
0.16941409 0.33311886 0.38287034
0.00665819 0.99972851 0.03939206
0.66490174 0.32988788 0.37676310
0.50128071 0.99223835 0.05956747
0.49745729 0.50864521 0.03815511
0.99933443 0.49211976 0.04546947
0.34209771 0.67145287 0.70934929
0.33107197 0.15942832 0.69473785
0.66449676 0.83519623 0.37692747
0.82909667 0.16390738 0.70139042
0.16029077 0.82793891 0.37960013
0.82669951 0.66216447 0.71227859
0.16726956 0.33061918 0.38378337
0.00381360 0.00306986 0.03746511
0.66630648 0.32585133 0.37715869
0.49702423 0.99711346 0.05438852
0.50054876 0.51049690 0.03458664
0.99771100 0.49357545 0.04337124
0.33497175 0.67021556 0.71570664
0.32653404 0.16108651 0.70258822
0.66909691 0.83152672 0.37320079
0.82983799 0.16609921 0.70817793
0.16370659 0.83674025 0.37680193
0.82234050 0.65876681 0.71185440
0.16610477 0.32554681 0.38228295
0.00415957 0.00876470 0.03700882
0.67471138 0.33782742 0.37499079
0.49684985 0.00706065 0.04273949
0.50419541 0.50662759 0.03496419
0.99964252 0.49549292 0.03722263
0.33527594 0.66917644 0.70914559
0.32405209 0.16188021 0.70981989
0.67011685 0.82900100 0.36808380
0.83686373 0.17355512 0.71198643
0.16782689 0.84916372 0.37073101
0.82906790 0.66356398 0.71189861
0.16777119 0.32623182 0.37931020
0.00776353 0.00855595 0.03842060
0.67753006 0.34301621 0.37306840
0.49405173 0.00640895 0.03974144
0.50625747 0.49814802 0.04066805
0.00527181 0.49815430 0.03296440
0.33761013 0.67069115 0.69904509
0.32885691 0.16375839 0.70807024
0.66804152 0.83321425 0.36986163
0.84307328 0.17232989 0.71136156
0.16824331 0.84702026 0.36668997
0.83253716 0.66914253 0.71242616
0.16624855 0.33434011 0.37807101
0.00356380 0.99961478 0.03967763
0.67276524 0.33343801 0.37283060
0.49536472 0.99680908 0.04657445
0.50819035 0.49877026 0.04344726
0.00707355 0.49976448 0.03475781
0.34002455 0.66981404 0.69925966
0.33656622 0.16656840 0.70515708
0.66480756 0.83765724 0.37659911
0.84161385 0.16733795 0.70939491
0.16753065 0.83322352 0.37169493
0.82863598 0.66773280 0.71250100
0.16182207 0.34013393 0.37626650
0.99781920 0.99489373 0.04116707
0.66656751 0.32238477 0.37145056
0.49991853 0.99829032 0.04958540
0.50220537 0.49998279 0.04372348
0.00256721 0.49830725 0.03900693
0.33935033 0.66791058 0.70892721
0.33536355 0.16617569 0.70734165
0.66123583 0.83232219 0.37921989
0.83472618 0.16729335 0.71111401
0.16623451 0.82301185 0.38158654
0.82183224 0.66323278 0.71265827
0.16426563 0.34031363 0.37284954
0.99819526 0.99972233 0.04136126
0.66802769 0.32709698 0.36975765
0.49983549 0.00566818 0.04257661
0.49911627 0.50109242 0.04254379
0.99937733 0.49677581 0.03969246
0.33752889 0.66731294 0.71487600
0.32701003 0.16281741 0.70915943
0.66170089 0.82391314 0.37380357
0.82944901 0.17188495 0.71458398
0.16860943 0.83173816 0.38307870
0.82421765 0.66416643 0.71148421
0.17166940 0.33770037 0.37035308
0.00382864 0.00535947 0.04324945
0.67459091 0.34022602 0.36897862
0.49480207 0.00669880 0.03657450
0.50343310 0.50194840 0.04150851
0.00167548 0.50079075 0.03617234
0.33775174 0.66788521 0.70996792
0.32446384 0.16204738 0.70734984
0.66682158 0.82698966 0.36572976
0.82875336 0.17339547 0.71392994
0.17121779 0.84229158 0.37770474
0.84007840 0.67259025 0.70936169
0.17125938 0.33706502 0.37051871
0.01076317 0.00613675 0.04683115
0.67607193 0.34247966 0.37091063
0.48979794 0.00210813 0.03843714
0.50129101 0.49951472 0.04446050
0.00355091 0.50592417 0.03474262
0.33767418 0.66642643 0.70274855
0.33319029 0.16785464 0.70364312
0.66909392 0.83761153 0.36681104
0.82748074 0.16281913 0.71189457
0.16711701 0.83381102 0.37552237
0.84774694 0.67549471 0.70618336
0.16253506 0.33973715 0.37162260
0.00769975 0.00218267 0.04725315
0.67020280 0.33338618 0.37639664
0.49450010 0.99764445 0.04156956
0.49666483 0.49931689 0.04864974
0.99718046 0.50354048 0.03891610
0.33874099 0.66489290 0.70512314
0.34174729 0.17119561 0.70377442
0.67036978 0.84156717 0.37457085
0.82668773 0.15230864 0.71147392
0.16111703 0.82019949 0.38009943
0.83744012 0.66191973 0.70299378
0.15815648 0.33599050 0.36866505
0.00354452 0.00249641 0.04392881
0.66537963 0.32655019 0.38028914
0.50405820 0.00222064 0.03844953
0.49675205 0.50071160 0.04980077
0.98710095 0.49850052 0.04151995
0.33619579 0.66591854 0.71324308
0.34039516 0.17089292 0.70595620
0.67049609 0.83632690 0.37612208
0.82923821 0.15326394 0.71143938
0.16559751 0.82500504 0.38415472
0.82739360 0.65146476 0.70242147
0.16258862 0.32545770 0.36575158
0.00449144 0.00656817 0.04038230
0.66493314 0.33159906 0.37841629
0.50356204 0.00698673 0.03027812
0.49932008 0.50304283 0.04857367
0.98719601 0.50114420 0.03939145
0.33290131 0.66817451 0.71514355
0.33328533 0.17617534 0.70776953
0.67240646 0.83263504 0.36930934
0.83256095 0.15772722 0.71015716
0.17495665 0.83901304 0.38036685
0.82899592 0.66172315 0.70180094
0.16594996 0.31975124 0.37013999
0.00219947 0.00366792 0.04050283
0.66711890 0.33831857 0.37561819
0.50089960 0.00602077 0.02647264
0.50302688 0.50297516 0.04581998
0.00026986 0.51212643 0.03997947
0.33532532 0.66704714 0.70889889
0.33450072 0.18342327 0.70862658
0.67345807 0.83995338 0.36708146
0.83512465 0.15829613 0.70840050
0.18175936 0.84170952 0.37229018
0.84114274 0.67988501 0.69793727
0.16237394 0.32612205 0.37226820
0.99799984 0.99601085 0.04460946
0.66371289 0.32707817 0.37901665
0.50289319 0.00034280 0.03247105
0.50261481 0.49427214 0.04401096
0.01058182 0.51837383 0.04437913
0.33305610 0.66070935 0.70586848
0.34838136 0.18659725 0.70623792
0.67079234 0.84896249 0.37702449
0.83776117 0.15496789 0.71015825
0.17859343 0.82981233 0.37273226
0.84431461 0.68315148 0.69410480
0.15545910 0.33648752 0.37193550
0.98838937 0.99075555 0.04603379
0.65683466 0.31701961 0.38466013
0.50446903 0.98882473 0.03950100
0.49777660 0.49111061 0.04082682
0.00735098 0.51079728 0.04899592
0.33160964 0.65720612 0.71375700
0.35317149 0.17860807 0.70600482
0.67024473 0.84952524 0.38630707
0.84045873 0.16136770 0.71471035
0.16766004 0.82309251 0.37994306
0.83261588 0.67071047 0.69930001
0.15341613 0.33300901 0.37474011
0.98330189 0.98961383 0.04413766
0.65378940 0.32246603 0.38314547
0.50134843 0.98306381 0.03974480
0.49662388 0.49753805 0.03960184
0.99832229 0.50173216 0.04896214
0.32904429 0.66355869 0.72269568
0.33355229 0.16550244 0.70895500
0.67152635 0.84143798 0.38252019
0.84109840 0.17586304 0.71493918
0.16146546 0.83208949 0.38097258
0.82984270 0.66642142 0.70810187
0.16747309 0.33428724 0.37435701
0.99474849 0.99288024 0.04079796
0.65792475 0.33286137 0.37843495
0.49524271 0.99157324 0.03645932
0.50281296 0.50280456 0.03886550
0.00085061 0.50982371 0.04438243
0.31991556 0.66631597 0.71731788
0.31355187 0.16346561 0.71543670
0.67140341 0.83844355 0.37292802
0.84077617 0.17807147 0.70809062
0.16174735 0.84383882 0.37247597
0.84026299 0.67594767 0.70945064
0.18382653 0.33745706 0.36925432
0.00439044 0.99313493 0.03936040
0.66515472 0.33615282 0.37875610
0.50688438 0.00822505 0.03322744
0.50856081 0.50054202 0.03395998
0.01187560 0.52303651 0.04298253
0.31397011 0.65656632 0.70633004
0.32642682 0.17037181 0.72058045
0.66630749 0.84548446 0.37155850
0.83390348 0.16738103 0.70190519
0.16241439 0.84210231 0.36529437
0.85166579 0.67917377 0.70539322
0.18367055 0.33270798 0.36333083
0.00002764 0.98937655 0.04445809
0.66507100 0.32771103 0.37995856
0.51933219 0.00999052 0.03585970
0.50708989 0.49119243 0.03608981
0.01441145 0.51908570 0.04413301
0.30968182 0.64867451 0.70513587
0.34985379 0.17681971 0.71496505
0.65394388 0.84225665 0.38389846
0.82480792 0.15952850 0.70429906
0.15850024 0.82787314 0.36958652
0.84279145 0.66592281 0.70341725
0.17523689 0.32963654 0.36532404
0.98713177 0.98888157 0.04512791
0.65603474 0.31950736 0.37625410
0.51905719 0.99454889 0.04579570
0.50674170 0.48678027 0.04212240
0.00337510 0.49818808 0.04362600
0.31038493 0.65694599 0.71688052
0.35172548 0.18053031 0.70861204
0.65046950 0.83658395 0.39008571
0.82814179 0.16360960 0.70691481
0.15461691 0.81903498 0.37698135
0.82159888 0.65039855 0.70752098
0.17670362 0.33383976 0.37288002
0.98275511 0.99127396 0.03809767
0.65236907 0.32638885 0.36538134
0.51243425 0.99622988 0.05054807
0.51052289 0.49276980 0.04519526
0.98809791 0.48397286 0.04506807
0.32537682 0.67161764 0.72105198
0.33480659 0.18096487 0.71333460
0.65666456 0.83761291 0.38044715
0.84207006 0.17281189 0.69958801
0.16134518 0.82868429 0.37634328
0.82036232 0.65705942 0.71125173
0.18628809 0.33934227 0.37544703
0.99032702 0.99413755 0.03763897
0.65088012 0.33313878 0.35774858
0.50629222 0.01414105 0.04524801
0.51115615 0.50337546 0.04485915
0.99374727 0.49712989 0.04883779
0.34331341 0.67772122 0.70837176
0.32503374 0.17660836 0.71936451
0.66202898 0.83207009 0.37195678
0.84620801 0.17360313 0.69350197
0.16793970 0.83868258 0.36850967
0.83458337 0.67718434 0.71146863
0.18923962 0.33808584 0.37132982
0.99074155 0.00026263 0.04640968
0.65615494 0.33067096 0.36557945
0.50749033 0.01753230 0.04126865
0.50602689 0.50928536 0.04086062
0.02054821 0.51614161 0.05416205
0.34312803 0.67105511 0.69610501
0.33649632 0.16048072 0.71617300
0.66103316 0.82290868 0.37518906
0.83092465 0.16346223 0.70089643
0.17001398 0.83322999 0.36209347
0.84501715 0.68919584 0.71011052
0.17511687 0.33252675 0.36851547
0.98357823 0.00038212 0.05202579
0.66040334 0.32315108 0.37335382
0.50973130 0.00337655 0.04734514
0.50341559 0.50437427 0.03850333
0.02783239 0.51433638 0.05333081
0.33039677 0.65845978 0.69336763
0.34489694 0.15115386 0.71626668
0.65912079 0.82077841 0.38546127
0.81870173 0.15954479 0.70711797
0.16817140 0.81881306 0.36332310
0.84353034 0.68473102 0.71284573
0.16463205 0.33944014 0.37847838
0.98448767 0.99522060 0.04504861
0.65884056 0.32491201 0.36978822
0.50825199 0.99228177 0.05284152
0.50155179 0.49871022 0.04022930
0.01491152 0.50119150 0.04827617
0.32504478 0.65337817 0.70019589
0.33343389 0.15380417 0.71733389
0.67015369 0.82959110 0.38981586
0.82499816 0.17248287 0.70153220
0.15944347 0.82651348 0.36720147
0.84020545 0.67677965 0.71824046
0.17066202 0.34350239 0.38471355
0.99488587 0.99661227 0.03406734
0.66221434 0.33687680 0.36347543
0.50887744 0.00203937 0.04677128
0.49610360 0.50008695 0.04205687
0.00049892 0.49241896 0.04804808
0.32994764 0.65963164 0.70982026
0.31404913 0.15581213 0.71333596
0.68129535 0.83356443 0.38042174
0.83587233 0.18661911 0.69229769
0.15393491 0.84619907 0.36740731
0.84253015 0.67612700 0.71951010
0.17803859 0.34229030 0.37914063
0.00202846 0.00142861 0.03101831
0.67366702 0.34912451 0.36566166
0.50515181 0.01470079 0.03961521
0.48901727 0.50321471 0.04117375
0.99687794 0.49280886 0.04594073
0.33673581 0.67152797 0.71305950
0.31281586 0.15774125 0.70773912
0.67917291 0.82770782 0.36780654
0.82942945 0.17876631 0.69197959
0.16026319 0.85337366 0.36813171
0.84652573 0.67941936 0.71637823
0.17156845 0.33281859 0.37289130
0.00052216 0.00250871 0.03741976
0.67444741 0.34403360 0.37447510
0.49662563 0.00979563 0.04061042
0.48510299 0.50201520 0.03635574
0.00140925 0.49603041 0.04088467
0.33842286 0.67561560 0.70860988
0.33447677 0.16209700 0.70669256
0.67422096 0.82557860 0.36925679
0.81752305 0.16463253 0.70233771
0.16900458 0.83963272 0.36983355
0.84348193 0.67477563 0.71272477
0.15399485 0.32163848 0.37748479
0.99629248 0.00444080 0.04007671
0.66908657 0.33062996 0.38054939
0.49901539 0.99740520 0.04781534
0.48706818 0.49778661 0.03190480
0.00088368 0.49244560 0.04171504
0.33530101 0.66603461 0.70427502
0.34690517 0.15697273 0.70785660
0.67083538 0.82530930 0.38140072
0.81783544 0.16160478 0.71589431
0.17340737 0.82926673 0.37325036
0.83332407 0.66344063 0.71228951
0.14760433 0.32326509 0.38524435
0.00008462 0.00456649 0.03554845
0.66851207 0.32761534 0.37779058
0.50618148 0.99194874 0.05263180
0.49266590 0.49532307 0.03360265
0.99615547 0.49184210 0.04451906
0.33670310 0.66239511 0.70596449
0.34009733 0.15383544 0.70419933
0.66749501 0.82398086 0.38353510
0.82910392 0.16985408 0.71514331
0.17138167 0.83738600 0.37819824
0.82536661 0.65596895 0.71140394
0.16033826 0.33387476 0.38802660
0.00848987 0.00372290 0.03181552
0.67166834 0.33667160 0.37239592
0.50460072 0.99779713 0.04869369
0.49543548 0.50035964 0.03572712
0.99522373 0.49454079 0.04331137
0.34529348 0.67037767 0.70831068
0.33014808 0.16131243 0.70176679
0.66614623 0.82771752 0.36965741
0.83721720 0.17592321 0.70505255
0.16867576 0.84611192 0.37808675
0.82662416 0.66024836 0.71039998
0.17436774 0.34066391 0.38444576
0.00653834 0.00061493 0.03376700
0.67651231 0.34478209 0.37232167
0.49210587 0.00310164 0.04011363
0.49605312 0.50951640 0.03623469
0.00010612 0.49737364 0.03977919
0.34478569 0.67440546 0.70597637
0.33076254 0.16727371 0.70578551
0.66421876 0.83455584 0.35998479
0.83610391 0.17179809 0.70212942
0.17305185 0.84329646 0.37336059
0.83170893 0.67043768 0.71147786
0.17587568 0.33866202 0.38086052
0.00051751 0.99918824 0.03985360
0.67825811 0.33818607 0.37674152
0.48816358 0.00592886 0.03881107
0.49439918 0.50479235 0.03873074
0.00387447 0.49851731 0.03727468
0.33642757 0.66941848 0.70178393
0.33886461 0.16442849 0.70963086
0.66177833 0.83430932 0.36520883
0.83128682 0.16389788 0.71040442
0.17586873 0.83463679 0.37328595
0.83254073 0.67342299 0.71291206
0.16363047 0.33282323 0.38145205
0.00037519 0.00183077 0.04308006
0.67859276 0.33110741 0.37960946
0.49505068 0.00216498 0.04461662
0.49722295 0.49931482 0.04153187
0.99922864 0.49550485 0.03577244
0.33271557 0.66264392 0.70118444
0.34124588 0.15907433 0.70648216
0.66424128 0.82872283 0.37529801
0.83182840 0.16700992 0.71691337
0.16713415 0.83202165 0.37769357
0.82945565 0.66731460 0.71323545
0.15653111 0.33334531 0.38046045
0.00849458 0.00410450 0.04001191
0.67624224 0.33481313 0.37535179
0.49969316 0.99769405 0.04994587
0.50282167 0.50281127 0.04325924
0.99098565 0.49280748 0.03491508
0.33479131 0.66089162 0.70754543
0.33318288 0.15867384 0.69781758
0.66911672 0.82854232 0.37876957
0.83675289 0.17312184 0.71088895
0.15663621 0.83927449 0.38036508
0.82619288 0.66355148 0.71027390
0.16576872 0.33956994 0.37546087
0.01362825 0.00178275 0.03763360
0.66897784 0.33660591 0.37031386
0.49714188 0.99723114 0.04846456
0.50464689 0.50486857 0.04406746
0.98986311 0.49607295 0.03328649
0.33720931 0.66610818 0.71306363
0.32517018 0.16838372 0.69867079
0.67261165 0.83657065 0.37109827
0.84161532 0.17372096 0.70281130
0.15384890 0.83831774 0.37819416
0.82561723 0.66455810 0.70673314
0.17452066 0.34109183 0.37154112
0.00826483 0.00198746 0.04136156
0.66741493 0.33293239 0.37215065
0.49725210 0.00088027 0.04168440
0.50175235 0.49964275 0.04328811
0.99555724 0.49940555 0.03280442
0.33536017 0.66984565 0.71168139
0.33190933 0.17678380 0.70720968
0.66677501 0.84141201 0.36536544
0.83834068 0.16536253 0.70576099
0.16284361 0.83052447 0.37553535
0.82908198 0.66602673 0.70479781
0.16600557 0.33109819 0.37227541
0.00162535 0.00342531 0.04601049
0.67189731 0.33093052 0.37877112
0.49753553 0.00020226 0.03793833
0.50056637 0.49564031 0.04623019
0.00062248 0.49940158 0.03519791
0.33491579 0.67191586 0.70648877
0.34070062 0.17276221 0.70905437
0.65654141 0.83537014 0.37036969
0.83261639 0.15887191 0.71754345
0.17256634 0.82670859 0.37543544
0.83108043 0.66531902 0.70605632
0.15376945 0.32309286 0.37634129
0.99935158 0.00326324 0.04505822
0.67597007 0.33591567 0.38179259
0.49754848 0.99222429 0.03844258
0.50151084 0.49795534 0.04950637
0.00105308 0.49831423 0.03808365
0.34027526 0.67147291 0.70557623
0.33723263 0.16721428 0.70563684
0.66072654 0.83347592 0.37745318
0.83464294 0.16302935 0.72202081
0.17280263 0.83067434 0.37773142
0.83166280 0.66411640 0.70701167
0.15599005 0.32659468 0.37695986
0.00451482 0.00398568 0.04196861
0.67406580 0.34277241 0.37718884
0.49779981 0.99008523 0.03829183
0.50565035 0.50062838 0.04929026
0.00077297 0.50257996 0.04035702
0.34006524 0.66777019 0.71135471
0.32538069 0.16959290 0.70439224
0.66804179 0.83946277 0.37676005
0.83864441 0.16714344 0.71174245
0.17068086 0.83595290 0.37865165
0.83174823 0.66444694 0.70403890
0.16848472 0.33645179 0.37104717
0.00979868 0.00515484 0.04088880
0.66398232 0.34178822 0.37188823
0.49598791 0.99956722 0.03514969
0.50838060 0.50076252 0.04685305
0.00715148 0.51200880 0.04247340
0.33420314 0.66600855 0.71571793
0.32168089 0.17639399 0.70807451
0.66557003 0.84111188 0.37021839
0.83666277 0.16368953 0.70205721
0.17024956 0.83188599 0.37905605
0.83108219 0.66309622 0.70280128
0.17396057 0.34082651 0.36480830
0.00335655 0.00374046 0.04393608
0.66002529 0.33660368 0.37365616
0.49573230 0.00728496 0.03132810
0.50677643 0.49783564 0.04319171
0.00988809 0.51245218 0.04373053
0.32950088 0.66464048 0.71245625
0.33177222 0.17383876 0.71229230
0.65977926 0.83494733 0.36915712
0.82923147 0.15907385 0.70713330
0.17010380 0.82273655 0.37784188
0.83283422 0.66240913 0.70400358
0.16700718 0.33375863 0.36552362
0.99360387 0.99792058 0.04780659
0.66594551 0.33211965 0.37965288
0.49689664 0.00227639 0.03396386
0.50560352 0.49541366 0.04181566
0.00452696 0.50407357 0.04368057
0.32986051 0.66511232 0.70715628
0.34466092 0.16835061 0.71115650
0.66144695 0.82953967 0.37620036
0.82448347 0.15749583 0.71859686
0.16947886 0.82263449 0.37656054
0.83627106 0.66567815 0.70226641
0.16036689 0.32588857 0.37215422
0.99270741 0.99128773 0.04503104
0.66767413 0.33107803 0.38128796
0.50077398 0.99460520 0.03980319
0.50724804 0.49970037 0.04053178
0.99795618 0.50041122 0.04410481
0.33307642 0.66678490 0.70710408
0.34227890 0.16959461 0.70716438
0.67244733 0.83476303 0.38015125
0.83685479 0.16664654 0.71609475
0.16546229 0.83244796 0.37466860
0.83995426 0.66791321 0.69992828
0.16337336 0.32733864 0.37408119
0.99492931 0.99158392 0.04077933
0.66175816 0.33442972 0.37642447
0.50957103 0.00474057 0.04023447
0.50422399 0.50149904 0.03706485
0.99235503 0.50463211 0.04508626
0.33122974 0.66372919 0.71366687
0.32766183 0.17240659 0.70579649
0.67828547 0.84521698 0.37528685
0.84579315 0.17181225 0.70237321
0.16564384 0.83871122 0.37191202
0.83766860 0.66540074 0.69971764
0.17410974 0.33568384 0.36896822
0.99199764 0.99738715 0.04122012
0.65722748 0.33459665 0.37480729
0.51124730 0.01295703 0.03645454
0.49702115 0.49571683 0.03726518
0.99497083 0.50924007 0.04468906
0.32962846 0.66559580 0.71616028
0.32556944 0.17425764 0.71211057
0.67221288 0.84880007 0.36927603
0.83641381 0.16410845 0.69832590
0.17175471 0.83285610 0.36925183
0.83082379 0.66135520 0.70225684
0.17567951 0.33319723 0.36935009
0.98397293 0.00193289 0.04450011
0.66233892 0.32900973 0.37905276
0.50721158 0.00621027 0.03198919
0.49468547 0.49532967 0.04173352
0.00433411 0.50886873 0.04595263
0.33332718 0.67027125 0.70947229
0.33706803 0.16971224 0.71947573
0.66516510 0.84491891 0.37437615
0.82573337 0.15740687 0.70701926
0.17647675 0.82564523 0.36969217
0.83474687 0.66433009 0.70646685
0.16347389 0.31914255 0.37643420
0.98198949 0.99915351 0.04474097
0.66899969 0.32767863 0.38299943
0.50621291 0.99585892 0.03188139
0.49631024 0.50101746 0.04507724
0.00965904 0.50639741 0.04844709
0.33345715 0.66572332 0.70434917
0.34150121 0.16172916 0.71520662
0.66743834 0.84168123 0.38893229
0.82670228 0.16082802 0.71559748
0.17990115 0.83217296 0.37302807
0.84433414 0.67530623 0.70795844
0.16041978 0.32094826 0.37674684
0.98860801 0.99483506 0.04029066
0.66144826 0.32971377 0.37927447
0.50915419 0.98949719 0.03895363
0.49978199 0.50500315 0.04190271
0.01050579 0.51087086 0.04981246
0.33142853 0.66231875 0.70694463
0.33516532 0.16352499 0.70791172
0.67788798 0.84033253 0.39637475
0.83922680 0.17409837 0.70978061
0.17413033 0.83985142 0.37426138
0.84443958 0.67770048 0.70659712
0.17122958 0.33661828 0.37087088
0.99863934 0.99810187 0.03544261
0.65301135 0.33646883 0.36774941
0.50941530 0.99245660 0.04728470
0.50143306 0.50350528 0.03335878
0.00822662 0.51667376 0.04792456
0.32437680 0.66395880 0.71134959
0.32410590 0.16634650 0.71000878
0.67893189 0.84101089 0.38933308
0.84188940 0.17483872 0.69280366
0.16731037 0.84029200 0.36915346
0.83628639 0.66646107 0.70637715
0.18251543 0.34653976 0.36674889
0.00398987 0.00473291 0.03706880
0.65805623 0.34218027 0.36077954
0.50503881 0.00402149 0.05008683
0.49496987 0.50081145 0.02956418
0.00112397 0.50990779 0.04453564
0.31716887 0.66891573 0.70957470
0.32108903 0.16284367 0.71883879
0.66878086 0.83545837 0.37678649
0.83111586 0.15690510 0.68730571
0.16882228 0.83619100 0.36542449
0.82792471 0.65477188 0.70912066
0.18702017 0.34440320 0.37344748
0.99889835 0.00154826 0.04104793
0.66967372 0.33864429 0.36970434
0.50018440 0.01045048 0.04400839
0.48856105 0.49988678 0.03304812
0.99083510 0.49219468 0.04376914
0.31953725 0.67228414 0.70346428
0.32897991 0.16028249 0.72247117
0.66848425 0.82368210 0.37142431
0.82904705 0.15225299 0.70096123
0.16755293 0.83208153 0.36558501
0.83176599 0.65982516 0.71406019
0.18303169 0.33769240 0.38489128
0.98865522 0.99105786 0.04004483
0.67041767 0.32553266 0.38005482
0.50044831 0.00920522 0.04009871
0.49187864 0.50042761 0.03658326
0.98135839 0.47645212 0.04422543
0.32354652 0.66240976 0.70176915
0.33830378 0.15666620 0.71329314
0.67247569 0.81552419 0.37643791
0.82776052 0.16316190 0.70951588
0.16317083 0.83752376 0.36825686
0.84824212 0.67638992 0.71980819
0.17424529 0.33317263 0.38853385
0.99085946 0.99068356 0.03638459
0.65955843 0.31574703 0.38082159
0.50285138 0.00362649 0.04029599
0.49951447 0.50155949 0.03632453
0.98156912 0.47653352 0.04724990
0.32413046 0.65257626 0.70659213
0.34042094 0.16050090 0.70678230
0.67468901 0.82230432 0.38011757
0.82170480 0.17290122 0.70362848
0.16042311 0.84480587 0.36816586
0.84694835 0.67392793 0.72093367
0.17311720 0.33836332 0.38424770
0.00414395 0.00154833 0.03601916
0.64981841 0.32414381 0.37290151
0.50942978 0.00177451 0.04099629
0.50642431 0.50582250 0.03652930
0.98959070 0.48383285 0.04921686
0.32909142 0.65555490 0.71213325
0.33851108 0.17279039 0.70963526
0.67382039 0.84034322 0.37718995
0.81962187 0.17656688 0.69381084
0.16031530 0.84044414 0.36986462
0.83121418 0.65759094 0.71733190
0.17925967 0.34753968 0.37901846
0.01523161 0.01209174 0.04276438
0.65287861 0.33928793 0.36115199
0.51291670 0.00517089 0.04325596
0.50475554 0.50726403 0.04178434
0.99470175 0.48564796 0.04222339
0.33677272 0.66924861 0.71032740
0.33670521 0.17408477 0.71481564
0.66762878 0.84720902 0.37430983
0.81932689 0.16944857 0.69409051
0.16650568 0.83555773 0.37162686
0.82200472 0.65536382 0.71438069
0.18008287 0.34638234 0.37799963
0.01110237 0.01013678 0.04772373
0.66367017 0.34245806 0.35764606
0.50831528 0.00740011 0.04518006
0.49288899 0.50486677 0.04356061
0.00377796 0.48838814 0.03543427
0.33962985 0.67842652 0.70802189
0.33584725 0.16330181 0.71471889
0.66301458 0.82929015 0.37322595
0.82199567 0.16537366 0.70639586
0.16765955 0.83555664 0.36823610
0.82873475 0.66566826 0.71474108
0.16585744 0.33290090 0.38268679
0.99709305 0.99684508 0.04479147
0.67461131 0.33957210 0.36478589
0.49495192 0.99677826 0.04869957
0.48526830 0.50191520 0.03863952
0.01081057 0.49658812 0.03689354
0.33511183 0.67305730 0.70918633
0.33425552 0.15251070 0.70697554
0.66585070 0.81407082 0.37132173
0.82811692 0.17303214 0.71503277
0.15968728 0.83813800 0.36727281
0.84533737 0.67600448 0.71329447
0.14909258 0.31982372 0.38455041
0.99665028 0.99032123 0.03901250
0.68313023 0.33817114 0.37432641
0.48605661 0.98601553 0.05330995
0.49292781 0.50255862 0.03621278
0.01142396 0.50262227 0.04319643
0.33249273 0.67085251 0.70545847
0.33366718 0.15656380 0.70051632
0.66735500 0.81821337 0.37148065
0.83551661 0.17719787 0.71353534
0.15224677 0.83938564 0.37078752
0.84721616 0.67583515 0.71068842
0.15512299 0.32325492 0.38355023
0.00595983 0.99649038 0.03689633
0.67954657 0.33791962 0.37426850
0.49228175 0.99446973 0.05138077
0.50897307 0.50645737 0.03757416
0.01041314 0.50217126 0.04558920
0.33957154 0.67916554 0.70166562
0.33340798 0.16598402 0.70335937
0.66431738 0.82847470 0.36970114
0.84064465 0.17275255 0.70572215
0.15130785 0.83630719 0.37283795
0.83164775 0.66446427 0.70973672
0.16913145 0.33950807 0.37913460
0.01255263 0.00470474 0.03949761
0.67254274 0.34237359 0.37069429
0.50575102 0.01559113 0.04320063
0.51218155 0.50120537 0.04018202
0.01275517 0.49397467 0.03925946
0.34244228 0.68198801 0.70023838
0.33228471 0.16272676 0.70756971
0.66221999 0.82999349 0.36928853
0.83611407 0.16530387 0.70317480
0.15795461 0.83911760 0.37344384
0.81908354 0.65999959 0.71072442
0.16966881 0.34182938 0.37826759
0.00766715 0.00238989 0.03720174
0.66259458 0.33339184 0.37654359
0.50795872 0.02206535 0.03840203
0.50050768 0.49214995 0.04096868
0.00789130 0.48545121 0.03321609
0.33977885 0.67620649 0.70599281
0.33332253 0.15948459 0.70701933
0.65824259 0.81893637 0.36667869
0.82589142 0.16510260 0.70925940
0.16361626 0.84068302 0.37470171
0.82456506 0.67041593 0.71155198
0.16514310 0.33301606 0.38175847
0.99973491 0.99480237 0.03436702
0.66496767 0.32769321 0.37976752
0.49758699 0.00766140 0.04212689
0.49755850 0.49951765 0.04100139
0.00017067 0.48599381 0.03461511
0.34113397 0.66866312 0.71418474
0.33417147 0.16360055 0.70333317
0.65548316 0.81377759 0.36548824
0.82716495 0.16853416 0.71122398
0.16696609 0.83889182 0.37971308
0.84072152 0.68057448 0.71182522
0.16008486 0.32293145 0.38552180
0.00577893 0.00045857 0.03595944
0.67580246 0.33351232 0.37658738
0.49042592 0.99245814 0.05064030
0.50298909 0.50964075 0.04317874
0.99767349 0.49362613 0.03597887
0.34706776 0.66888047 0.71185647
0.33208001 0.16946672 0.70170432
0.65870718 0.82487853 0.36736546
0.83478194 0.16878243 0.71030754
0.16847279 0.83506420 0.38144012
0.84187893 0.67942873 0.70997837
0.16407561 0.32834515 0.38058262
0.01424124 0.01106832 0.03866419
0.68124145 0.34270419 0.37221427
0.49260660 0.98863840 0.05181947
0.50584638 0.50857612 0.04489023
0.00013965 0.50157119 0.03552986
0.34990894 0.67520573 0.70707484
0.33038626 0.16983536 0.70420873
0.66489441 0.84094826 0.37346511
0.83872222 0.17025112 0.71077984
0.16729449 0.82897742 0.37942992
0.82772227 0.66802241 0.70792611
0.16996136 0.33990787 0.37219239
0.01333188 0.01231065 0.04181587
0.67808117 0.34433635 0.37093267
0.49583463 0.99089932 0.04476381
0.50229470 0.50113330 0.04367505
0.00182650 0.50294333 0.03435498
0.34376395 0.67524893 0.70567293
0.32826897 0.16182424 0.70828978
0.66937175 0.84779667 0.37730564
0.83498582 0.16847008 0.71300563
0.16714921 0.82885668 0.37947846
0.82220829 0.66293917 0.70986257
0.16020418 0.32895902 0.37331210
0.00619163 0.00232874 0.04352953
0.67359063 0.33764781 0.37366590
0.49501896 0.99505675 0.03731401
0.49671956 0.49879687 0.04250585
0.99902498 0.50104308 0.03344092
0.33432508 0.66890612 0.70570188
0.32919280 0.16058097 0.70771121
0.66944878 0.83630532 0.37437542
0.83184457 0.16504957 0.71612830
0.17070456 0.83186936 0.37782078
0.83105415 0.66995188 0.71195955
0.15124530 0.31959107 0.37463791
0.00151729 0.99423149 0.04109000
0.67584402 0.33633465 0.37503147
0.49316537 0.99697678 0.03725162
0.49620278 0.50114128 0.04467759
0.99394384 0.50429805 0.03864037
0.33029983 0.66148578 0.70680310
0.33385755 0.17068461 0.70486658
0.67076828 0.82535699 0.37183869
0.83514120 0.16534366 0.71419515
0.17490840 0.83439979 0.37627407
0.84113124 0.67648289 0.70820828
0.15518500 0.32574566 0.37255606
0.00101017 0.99963786 0.03864529
0.67632710 0.33802701 0.37476194
0.49584816 0.99848792 0.04035125
0.50069185 0.49754697 0.04418343
0.99281531 0.50619925 0.04360401
0.33126773 0.65998998 0.70738675
0.33704874 0.17925586 0.70610861
0.67355233 0.83107641 0.37372556
0.83623946 0.16461599 0.70871394
0.17253487 0.83330176 0.37472916
0.83639984 0.66966284 0.70523740
0.16522558 0.33491988 0.36948548
0.99812892 0.00563109 0.04003975
0.66615611 0.33341635 0.37320921
0.50379564 0.00379296 0.03889198
0.50386899 0.49511501 0.04339146
0.99587455 0.50188604 0.04346067
0.33509084 0.66602965 0.70945165
0.33497979 0.17543448 0.70801950
0.67309068 0.84396305 0.37630098
0.83253840 0.16380290 0.70550392
0.16658929 0.83247248 0.37185708
0.82403141 0.65704904 0.70680562
0.16908562 0.33778030 0.36707451
0.99490957 0.00161539 0.04372294
0.65608742 0.32744009 0.37467925
0.50783180 0.00961706 0.03508800
0.50230545 0.49598400 0.04582104
0.99718441 0.49515466 0.04085778
0.33596004 0.66799618 0.71155127
0.32901743 0.16179392 0.70872375
0.66940802 0.84612094 0.37721868
0.82848064 0.16388050 0.70682164
0.16994548 0.83460208 0.37469420
0.82601480 0.65878041 0.70689781
0.16608061 0.33370183 0.37038344
0.99637520 0.99519849 0.04562536
0.65751032 0.32491573 0.37737676
0.50499723 0.00894176 0.03539451
0.49881649 0.49661073 0.04444071
0.99461172 0.49437204 0.04013158
0.33348691 0.66430621 0.71177758
0.32911557 0.15883656 0.71052502
0.66640818 0.83575621 0.37328100
0.82599310 0.16154800 0.70969630
0.17763585 0.83338260 0.37871173
0.83801691 0.66891370 0.70370778
0.16881629 0.33112028 0.37437853
0.00014899 0.99431335 0.04613908
0.66664358 0.33051363 0.37634747
0.50177150 0.00301108 0.03936527
0.49858452 0.50245327 0.04032031
0.99623205 0.50301383 0.04384367
0.33394231 0.66285592 0.71127473
0.33745218 0.17220470 0.71155208
0.66655997 0.83219455 0.37248890
0.82659073 0.15993103 0.70806854
0.17752006 0.83167745 0.37889903
0.84258514 0.66839117 0.69861590
0.17385401 0.33325479 0.37558596
0.00261129 0.00295757 0.04402473
0.67040684 0.33986809 0.37664568
0.50305718 0.99958663 0.04024050
0.49995921 0.50424535 0.03627202
0.00305258 0.51172170 0.04736600
0.33540349 0.66537317 0.71000670
0.34151380 0.18096738 0.70987134
0.67008861 0.84315655 0.37732361
0.83098367 0.16263021 0.70505073
0.16976095 0.83409173 0.37641008
0.83556869 0.65840892 0.69712376
0.17404927 0.33713025 0.37388931
0.99961134 0.00816116 0.04149562
0.66675671 0.33903716 0.37828541
0.50353624 0.99611451 0.03819403
0.50084797 0.49880924 0.03650962
0.00758925 0.51299700 0.04703231
0.33204339 0.66867741 0.71008073
0.33460513 0.17337310 0.71017485
0.67271386 0.85298917 0.38103554
0.83960023 0.16789417 0.70651421
0.16248437 0.83593266 0.37379057
0.82540438 0.65037355 0.70166730
0.17469463 0.34098626 0.37280391
0.99622378 0.00063898 0.04173739
0.66242129 0.33017054 0.37716195
0.49850070 0.99370007 0.03645568
0.50317282 0.49647651 0.04176396
0.00363146 0.50678952 0.04467297
0.32600663 0.66753175 0.71040010
0.32558443 0.16105026 0.71281499
0.67430642 0.85020371 0.37836331
0.84796578 0.16910859 0.70767956
0.16083670 0.83333170 0.37385430
0.82659567 0.65422959 0.70607559
0.17408280 0.33967302 0.37491315
0.99351820 0.99142882 0.04088193
0.66229100 0.32399606 0.37737914
0.49432641 0.99534051 0.03657840
0.50407514 0.49935328 0.04336631
0.99757908 0.49921841 0.04185212
0.32319098 0.66398962 0.70885493
0.33224433 0.16550924 0.71292205
0.67077136 0.83406470 0.37517311
0.84641298 0.16491654 0.70857002
0.16281591 0.82961690 0.37260514
0.83869040 0.66658592 0.70540141
0.17386411 0.33595518 0.37352188
0.98719165 0.99236359 0.03649332
0.66554619 0.32785963 0.37860737
0.49654970 0.99846135 0.03914972
0.50220027 0.50271350 0.03834228
0.99835510 0.50059192 0.04387799
0.32542077 0.66328939 0.70864456
0.34558965 0.17958170 0.71216422
0.66416122 0.82347533 0.37695421
0.84039606 0.16345508 0.70768997
0.16210131 0.83065862 0.37095026
0.84590419 0.67433272 0.70112580
0.17298455 0.33377063 0.36930304
0.98076943 0.00047887 0.03739589
0.66548818 0.33295787 0.37890555
0.50502938 0.00380094 0.04240266
0.50028773 0.50167602 0.03164103
0.00416175 0.50572582 0.04861778
0.32577604 0.66266491 0.70920599
0.34500317 0.17823280 0.71506315
0.65658909 0.82947739 0.38264557
0.83798939 0.16655256 0.70322417
0.15984741 0.83436872 0.37117650
0.84295968 0.67297937 0.70291820
0.16962057 0.33845115 0.36947976
0.98491815 0.00395968 0.04232392
0.65926993 0.32417353 0.37722799
0.50925191 0.00826091 0.04218062
0.50358899 0.49974583 0.03188233
0.00757928 0.50115047 0.04781479
0.32295032 0.66293224 0.70736931
0.33152744 0.16084081 0.71785437
0.65438473 0.83873023 0.38273641
0.83925398 0.17030681 0.70352118
0.16046663 0.83630058 0.36904262
0.83975323 0.67514790 0.71371443
0.17210984 0.34686179 0.37254434
0.99286352 0.99626014 0.04595862
0.65511872 0.31881329 0.37283911
0.50584186 0.00674198 0.04056044
0.50590190 0.50026501 0.03862483
0.00423647 0.49188027 0.04133132
0.32430629 0.66290040 0.70498014
0.32094409 0.15071555 0.71578258
0.65767527 0.83746935 0.37995422
0.84032434 0.17117333 0.70710550
0.16447174 0.83305065 0.36812290
0.84708117 0.68559656 0.71922975
0.17578362 0.34201999 0.37864206
0.99912634 0.99001027 0.04620256
0.66320682 0.33218846 0.37148497
0.50361953 0.00103679 0.04151837
0.49428899 0.50155793 0.03880715
0.00135064 0.49119964 0.03975418
0.33089337 0.66081631 0.70044234
0.32365074 0.16399724 0.71212532
0.66270794 0.82551620 0.37492900
0.83250830 0.16553456 0.70834602
0.17029583 0.82892655 0.37019619
0.85325913 0.68817835 0.71252954
0.17555719 0.32852427 0.38265881
0.00481659 0.99796952 0.04350940
0.67203537 0.34893808 0.37381321
0.50576669 0.99871132 0.04359936
0.48420938 0.50319585 0.03643871
0.00514109 0.49919346 0.04602577
0.34169355 0.66239071 0.69806608
0.33660538 0.18461143 0.70919184
0.66646323 0.81546854 0.37329688
0.82259078 0.16134449 0.70462340
0.17152342 0.83438596 0.37414890
0.84647922 0.67666647 0.70778873
0.16419092 0.31813856 0.37694109
0.01094741 0.01264112 0.03760059
0.66721787 0.34856860 0.37211844
0.50469662 0.00115693 0.04403778
0.48932494 0.49548930 0.03756349
0.00440624 0.50358406 0.05075459
0.34480953 0.66717654 0.70530140
0.34330544 0.18146046 0.70699684
0.66834741 0.82185878 0.37666118
0.82194105 0.16722194 0.69865615
0.16281116 0.84161887 0.37586759
0.83242994 0.66777213 0.71301059
0.15247840 0.32086089 0.37197800
0.01658483 0.01976675 0.03280545
0.65898621 0.33278404 0.37236380
0.50073646 0.99979877 0.04282208
0.49901674 0.48274985 0.03952486
0.99905770 0.49958062 0.04863574
0.33670375 0.67016045 0.71586290
0.33830117 0.16377264 0.70613103
0.66951530 0.83789762 0.37853243
0.82684554 0.17318478 0.69930687
0.15170763 0.83296562 0.37079101
0.82387393 0.66664386 0.72233305
0.15432743 0.33110980 0.37459616
0.01650822 0.01380296 0.03448551
0.65939630 0.32794554 0.36917784
0.50209618 0.99725976 0.04410256
0.50111884 0.48100728 0.04193315
0.99760391 0.49357796 0.04205527
0.33409918 0.66565105 0.71374025
0.33008706 0.15123020 0.70497260
0.67565924 0.84267005 0.37919852
0.82929183 0.17361561 0.70180044
0.15143987 0.82267996 0.36904909
0.82439552 0.67124818 0.72266000
0.16423200 0.33065545 0.38209244
0.00742592 0.00085302 0.03734785
0.66740211 0.33952332 0.36576606
0.50854145 0.00087630 0.04924056
0.49528886 0.49621914 0.04395174
0.99906462 0.48828316 0.03708651
0.33865092 0.66201327 0.70507971
0.33605566 0.15332015 0.69978864
0.68026279 0.83439732 0.37656488
0.82398877 0.17710597 0.70683015
0.17143028 0.82818857 0.37395553
0.82997929 0.67291564 0.71347415
0.15770558 0.31713166 0.38147047
0.99550772 0.99381253 0.03592553
0.67435390 0.34726344 0.36963521
0.50911800 0.00815116 0.05325227
0.48918598 0.51084594 0.04053915
0.00338352 0.48674083 0.03610207
0.34280107 0.67092042 0.70066861
0.34675776 0.15918861 0.69456723
0.67673380 0.82523847 0.37159756
0.82290157 0.17630430 0.71116335
0.18741321 0.84017960 0.37567426
0.83036357 0.66564690 0.70691991
0.15126488 0.31331627 0.38034451
0.99073533 0.99391235 0.03566846
0.67016116 0.34114502 0.37447812
0.50883145 0.01288182 0.05189131
0.49072384 0.50901896 0.03333160
0.00656659 0.49603083 0.03565612
0.34453301 0.68106872 0.70604263
0.33867958 0.15900476 0.69528623
0.66750662 0.83112867 0.37082729
0.83124602 0.16805718 0.70913558
0.18216899 0.84118104 0.37450910
0.82897032 0.66097570 0.71096585
0.16147725 0.33226714 0.38561156
0.99873180 0.99525474 0.03360394
0.66794957 0.33094855 0.37621986
0.50608783 0.00975976 0.04592855
0.49115517 0.49879944 0.03467179
0.00926113 0.50593904 0.03314452
0.33949816 0.67929133 0.71449386
0.32219708 0.15759119 0.70125435
0.66266075 0.84370038 0.37228821
0.83028710 0.16707022 0.71252691
0.16795947 0.83508748 0.37701820
0.82710495 0.66630964 0.71923607
0.17095664 0.35111424 0.38958800
0.01266115 0.99830368 0.03551862
0.68381334 0.33473482 0.37602944
0.50006325 0.00086317 0.04545223
0.48822449 0.49724181 0.04485883
0.00661492 0.49751248 0.03245023
0.33679261 0.67189410 0.71338721
0.31059008 0.16066455 0.70178248
0.66545111 0.84067064 0.37383489
0.82556946 0.16793388 0.71590412
0.15770894 0.83332091 0.38101043
0.82938800 0.67352079 0.71682047
0.16960745 0.34768953 0.38582108
0.02062749 0.99755259 0.04404776
0.69351353 0.34650945 0.37084400
0.49104781 0.99127642 0.04888227
0.49339112 0.50474422 0.04991326
0.00014886 0.49036656 0.03202146
0.34183271 0.67339472 0.70930038
0.31707050 0.17155699 0.70029167
0.66855324 0.82982959 0.36783929
0.82887413 0.16606138 0.71394814
0.16316564 0.83348222 0.38285970
0.83136105 0.66836887 0.70973697
0.16173306 0.32929883 0.37822344
0.01586777 0.00017789 0.04624340
0.67913383 0.34282062 0.37145800
0.48832286 0.99377853 0.04659516
0.50392891 0.50816674 0.04379766
0.99634947 0.49320861 0.02875964
0.34647072 0.68469438 0.71167569
0.33683067 0.18178489 0.69797085
0.66800442 0.82325335 0.36060878
0.83812584 0.15971301 0.71018124
0.16603957 0.83083128 0.37654125
0.82433918 0.65454643 0.70815527
0.16391599 0.32407386 0.37368919
0.00783375 0.00399081 0.04042473
0.66294926 0.33296777 0.37868105
0.48978782 0.99725459 0.04470111
0.51150618 0.50295390 0.03883687
0.99301607 0.50131752 0.03155887
0.34932641 0.68399955 0.71218056
0.34439544 0.17556995 0.70115196
0.66657214 0.83076702 0.36102399
0.84264194 0.15741235 0.71290685
0.15668693 0.82567903 0.37125671
0.81709962 0.64904630 0.71474078
0.17139983 0.33488609 0.37381039
0.00647187 0.00685549 0.03674650
0.66606019 0.32502158 0.37896708
0.48729569 0.99284174 0.04657242
0.50825674 0.49325855 0.04232894
0.99501111 0.50235716 0.03577675
0.34550946 0.67141922 0.70734069
0.33373188 0.16101433 0.70641954
0.66553426 0.84151996 0.36766936
0.83943948 0.16404989 0.71680289
0.15155977 0.82416916 0.37426019
0.81646072 0.65142138 0.71778880
0.17593561 0.34439744 0.37769828
0.00617635 0.00906339 0.04243929
0.67842462 0.32696344 0.37365173
0.48727576 0.99350352 0.04460948
0.50114021 0.49285292 0.05140584
0.99829851 0.49522855 0.03578714
0.33957119 0.66439382 0.69995135
0.32270336 0.15608037 0.70911676
0.66712256 0.84271869 0.37123213
0.83339968 0.16811742 0.71665305
0.16325925 0.82987798 0.37825038
0.82318224 0.66079232 0.71071881
0.17525337 0.34279654 0.37724611
0.00230962 0.00705842 0.05017162
0.67194071 0.33938697 0.37406695
0.49011560 0.99800188 0.04150917
0.50435735 0.50255126 0.05531666
0.99827083 0.49425312 0.03493194
0.33523362 0.66423922 0.69985956
0.32456004 0.16258491 0.70488190
0.67026088 0.83860991 0.36839202
0.83167519 0.16501181 0.71452517
0.18294193 0.83799646 0.37795142
0.83664366 0.67275757 0.70428023
0.16739310 0.33548543 0.36965808
0.99860329 0.00330917 0.04868408
0.65915519 0.34172264 0.37526261
0.49447185 0.00122697 0.04149927
0.50618478 0.50343463 0.04728052
0.99832908 0.49997851 0.03521092
0.33444561 0.67207289 0.71002125
0.33620206 0.17219347 0.69901751
0.66508262 0.82947391 0.36775549
0.83576127 0.16185450 0.71220960
0.18569830 0.83900141 0.37731957
0.84364617 0.67857181 0.70344739
0.16302680 0.33572614 0.36575088
0.99888254 0.00142040 0.04125913
0.66049887 0.33214889 0.37219025
0.49941667 0.00235455 0.04061619
0.50157548 0.49630555 0.04093117
0.00065220 0.50745821 0.03812042
0.33449896 0.67423097 0.71554172
0.33909439 0.17389819 0.70041889
0.65782768 0.82603543 0.37347707
0.84018549 0.16113259 0.70977863
0.16740619 0.83344193 0.37680610
0.84285742 0.67835720 0.70888611
0.16454296 0.33983368 0.36779501
0.00267980 0.00205402 0.03833823
0.67144359 0.33024837 0.37005060
0.50153549 0.00154415 0.03895072
0.49732319 0.49388916 0.04677683
0.00321770 0.50933130 0.04210025
0.33466503 0.66785762 0.71326111
0.33014265 0.16702138 0.70644118
0.65864905 0.83286692 0.38274575
0.83853077 0.16234483 0.70700743
0.15608604 0.82986611 0.37796923
0.84228512 0.67290680 0.71119015
0.16571787 0.33924362 0.37135907
0.00229970 0.00049199 0.04328259
0.67682521 0.33822297 0.37516459
0.49985511 0.99998294 0.03692866
0.49594546 0.49559134 0.05300147
0.00127125 0.50358566 0.04204109
0.33385007 0.66491544 0.70882975
0.32703770 0.16859017 0.70826726
0.66553337 0.83651259 0.38214220
0.83267541 0.16400356 0.70537430
0.16402803 0.82923184 0.37700769
0.84051423 0.66805298 0.70485749
0.16540185 0.33304013 0.37287382
0.99633406 0.99458689 0.04978458
0.67295178 0.34416755 0.38201300
0.49652504 0.99811913 0.03514765
0.50060788 0.50015372 0.04830917
0.99724344 0.50101242 0.04116291
0.33568919 0.66872611 0.70678052
0.33442708 0.17441281 0.70920588
0.67209010 0.83732348 0.37476099
0.83069887 0.16370674 0.70443183
0.17598863 0.83337979 0.37552018
0.83802458 0.66648608 0.69824689
0.16172032 0.32494911 0.37112820
0.99543450 0.99354142 0.04769347
0.66324566 0.33471864 0.38344235
0.49728407 0.99932552 0.03728635
0.50341651 0.49902561 0.03605744
0.99857728 0.50540229 0.04268193
0.33745576 0.66936483 0.70876048
0.34505023 0.17711945 0.71079718
0.67004582 0.83588057 0.37446136
0.83296239 0.16601342 0.70528688
0.17427645 0.83599369 0.37528838
0.83439658 0.66390242 0.69898136
0.15774619 0.32412476 0.37244556
0.99734019 0.99529906 0.03842144
0.66134312 0.32410686 0.37833608
0.50277094 0.00116318 0.04064478
0.50021260 0.49227179 0.02899749
0.00359874 0.50805120 0.04657612
0.33386431 0.66231080 0.71040061
0.34499020 0.17342761 0.71366394
0.66454804 0.83597079 0.38080872
0.83786990 0.17217328 0.70723787
0.16276213 0.83411075 0.37360367
0.82898387 0.66174529 0.70478366
0.16395119 0.32932478 0.37617878
0.99851388 0.99667905 0.03515129
0.66404304 0.32686525 0.37583775
0.50625971 0.99864205 0.04029093
0.49502372 0.49195389 0.03543377
0.00681975 0.50414152 0.04756930
0.32720074 0.65739785 0.70977171
0.33474391 0.16448838 0.71596915
0.66571569 0.84457155 0.38191981
0.83970694 0.17587614 0.70510124
0.16236490 0.83428520 0.37344381
0.82596322 0.66029760 0.70838726
0.17065133 0.33148915 0.37718316
0.99919239 0.99812598 0.04218967
0.66318220 0.33351402 0.37731685
0.50771510 0.99844286 0.03767859
0.49374674 0.50186964 0.04375242
0.00700050 0.49930095 0.04175510
0.32126138 0.65843008 0.70974888
0.32926074 0.16286907 0.71371607
0.67159987 0.84762909 0.37522832
0.83554918 0.17321677 0.70196566
0.17483899 0.83798519 0.37306526
0.82748685 0.66142460 0.70498351
0.16988956 0.33090077 0.37477803
0.99693429 0.99677728 0.04787672
0.65822109 0.33734316 0.37725377
0.50788750 0.00298322 0.03815391
0.50206170 0.50998910 0.04220950
0.00536550 0.50004449 0.03866394
0.32205750 0.65916412 0.70993728
0.33259750 0.16926056 0.70947086
0.67427137 0.83999257 0.36916267
0.83091137 0.16941586 0.70532094
0.18317718 0.84140965 0.37205168
0.83353007 0.66828521 0.70164457
0.17167745 0.33362465 0.37252750
0.99523057 0.99413931 0.04247091
0.65321738 0.33228878 0.37305587
0.50765923 0.00612790 0.04306037
0.50670000 0.50540675 0.03296452
0.00428735 0.50207540 0.04394640
0.32886114 0.66385472 0.70970745
0.33598571 0.16879701 0.70980509
0.66790802 0.82706441 0.37296863
0.83314865 0.17104032 0.71126298
0.16995466 0.83558163 0.37474937
0.84195492 0.67312765 0.70488951
0.17696496 0.34035372 0.37291052
0.99569973 0.99696777 0.03500698
0.65737483 0.32362325 0.37205612
0.50951586 0.00539620 0.04638785
0.50133804 0.49759386 0.03136233
0.99990285 0.49983068 0.05014960
0.33233095 0.67140126 0.70756280
0.33249538 0.16305146 0.71163299
0.66114266 0.82032757 0.38133975
0.84005117 0.17410318 0.71262104
0.14893392 0.82979668 0.37374153
0.84352152 0.67168882 0.71162725
0.18094710 0.34373138 0.37342335
0.99450976 0.99968155 0.03526659
0.66649435 0.32387898 0.37530355
0.50911713 0.00232214 0.04368577
0.49939795 0.50152076 0.04345522
0.99447731 0.49636297 0.05008545
0.33318503 0.67415535 0.70495576
0.32501181 0.15979442 0.71189005
0.66606738 0.83318649 0.38524842
0.84147460 0.17162805 0.70825770
0.15064740 0.83223842 0.37096545
0.83744427 0.66731715 0.71435657
0.17818048 0.33897027 0.37201668
0.99399025 0.99765193 0.03879011
0.66731222 0.32843714 0.37922315
0.50229810 0.00171731 0.04047267
0.50334970 0.50545826 0.04884461
0.99124201 0.49032134 0.04437854
0.33436185 0.67400118 0.70400386
0.32310419 0.16254797 0.71232029
0.67432409 0.84381889 0.37902030
0.83240786 0.16282915 0.70310599
0.16571472 0.83036188 0.37057500
0.83079896 0.66417976 0.71048176
0.17291868 0.33540373 0.37308848
0.99330171 0.99488151 0.03961004
0.66410934 0.33181272 0.37547234
0.49774839 0.00338851 0.04194537
0.50856153 0.50580484 0.03956542
0.99283816 0.48973512 0.04412141
0.33791828 0.67157229 0.70212407
0.32916447 0.16501760 0.71308256
0.67072078 0.83102414 0.37574127
0.81980770 0.15619004 0.70500252
0.17211636 0.82651704 0.37275120
0.83307825 0.66723982 0.70861107
0.17291099 0.33752308 0.37743253
0.99492633 0.00025453 0.03436400
0.66260872 0.33302761 0.36662501
0.49835405 0.00034192 0.04456420
0.50413878 0.50594861 0.03180769
0.99932724 0.49641645 0.04791342
0.34144409 0.66663149 0.70263134
0.33768213 0.16329741 0.71115603
0.66817788 0.82160402 0.37786970
0.81725539 0.16519514 0.70593756
0.16469672 0.83196146 0.37836600
0.84154521 0.67068434 0.71244226
0.16988283 0.33779928 0.38025598
0.00011880 0.01091541 0.03231074
0.66753342 0.33044730 0.36356629
0.49998268 0.99378370 0.04622111
0.49243282 0.50396134 0.03516100
0.00600872 0.49902811 0.04989695
0.33624594 0.66282962 0.70458774
0.33853461 0.16431800 0.70668846
0.66949234 0.82361888 0.38020353
0.83313154 0.17908470 0.70383468
0.15740179 0.83635522 0.37810965
0.83085492 0.66448176 0.71422907
0.16631246 0.33532793 0.38258680
0.00487588 0.01027447 0.04110827
0.67509000 0.33358456 0.36816927
0.49377864 0.98911975 0.04397868
0.48876925 0.50358701 0.04447108
0.00916103 0.50192923 0.04277985
0.32836109 0.66447161 0.70548075
0.33251849 0.16469446 0.70409446
0.67343989 0.83658007 0.37678975
0.84392354 0.17484888 0.70357331
0.16623049 0.83719792 0.37344584
0.82183143 0.66054976 0.71547108
0.16475319 0.33391299 0.38356037
0.01032500 0.00418400 0.05087427
0.67278331 0.33717392 0.37269662
0.48464285 0.99257574 0.03992716
0.49781259 0.50550218 0.04412135
0.00821621 0.50284169 0.03197359
0.32825720 0.67032339 0.70390639
0.33008641 0.16229350 0.70342737
0.67449235 0.84184759 0.37004267
0.83521226 0.15976137 0.70580423
0.17737795 0.83869672 0.37302733
0.83625711 0.66567213 0.71361311
0.16648556 0.33858275 0.38080786
0.01315627 0.00061597 0.04870373
0.66960080 0.34340057 0.37342728
0.48388921 0.00041937 0.04099776
0.50640331 0.50829103 0.03553401
0.99994619 0.49803850 0.03142472
0.33554397 0.67305989 0.70142299
0.33093630 0.15995953 0.70302979
0.66997744 0.82770134 0.36747534
0.81910919 0.15507188 0.71290130
0.17216988 0.84267493 0.37738589
0.84995812 0.66960298 0.70895008
0.16608545 0.33469398 0.38169251
0.01318357 0.00598968 0.04149493
0.68121014 0.34645750 0.36763600
0.48865265 0.00329214 0.04530933
0.49893033 0.50436717 0.02917798
0.99574474 0.49692341 0.03564591
0.34561710 0.67120330 0.70531443
0.33509933 0.16125086 0.70241129
0.65873411 0.81583820 0.37405635
0.81919099 0.16350004 0.71488629
0.15608015 0.84264772 0.38060961
0.84236599 0.65690903 0.70945763
0.15926510 0.32368912 0.38439082
0.00950808 0.01734304 0.03734265
0.69485073 0.33914909 0.37062164
0.49042426 0.00068502 0.04879913
0.48813239 0.49818732 0.03922976
0.99461335 0.50131498 0.03398474
0.34818730 0.67027494 0.70977132
0.33694212 0.16551273 0.70289190
0.65271243 0.82237672 0.37460819
0.83575631 0.17213155 0.71055438
0.14902551 0.83572148 0.37755817
0.82489666 0.64568900 0.71244900
0.15366959 0.31918562 0.38294849
0.00686116 0.02077950 0.04071506
0.69422384 0.33945625 0.38264205
0.49277661 0.99913684 0.04892349
0.49236306 0.49308458 0.05241387
0.99421706 0.50634800 0.02997482
0.34268539 0.66683254 0.71307301
0.33325380 0.16449967 0.70772179
0.65816359 0.83690631 0.36862607
0.84335821 0.17403366 0.70552919
0.16414493 0.83359491 0.37480938
0.81775763 0.65445769 0.70968066
0.15379246 0.31903877 0.37627398
0.01299272 0.01120775 0.04364034
0.68813084 0.34765890 0.38314093
0.49741642 0.00081000 0.04576139
0.49908051 0.48864992 0.05012549
0.99868127 0.50584221 0.02935158
0.34140557 0.66597716 0.71857134
0.33261521 0.16430011 0.71039739
0.66815617 0.85097115 0.36353064
0.83244790 0.17509169 0.70170067
0.18422764 0.83422473 0.38070541
0.81606871 0.66444123 0.70633563
0.15388358 0.31959301 0.37088524
0.01860084 0.00387293 0.03902355
0.68808321 0.34515010 0.37255873
0.50389765 0.00139949 0.04638300
0.49627955 0.49513287 0.04053691
0.00429794 0.49705599 0.03270511
0.34359580 0.66865125 0.71844236
0.33479658 0.16942573 0.70425883
0.66959055 0.84512095 0.36431179
0.83431079 0.18195099 0.70817725
0.18578669 0.83588728 0.38627806
0.81281850 0.66519087 0.70437508
0.15050154 0.31910340 0.37096310
0.01435765 0.00683922 0.02823507
0.68385428 0.34119082 0.36485203
0.50248172 0.99403605 0.04723697
0.48843729 0.50691881 0.03746117
0.01077019 0.49597988 0.03893001
0.34493440 0.66871537 0.71443718
0.33521950 0.16557750 0.69980190
0.65696286 0.82582591 0.36865511
0.84305006 0.18132279 0.71695003
0.17675240 0.84325844 0.38250212
0.81503039 0.66168310 0.70565444
0.14446533 0.31601823 0.37299497
0.99685246 0.00749630 0.02724314
0.67642747 0.33821766 0.36949593
0.49416459 0.98739329 0.04340432
0.49392363 0.51245919 0.04327810
0.00697761 0.50650369 0.03861401
0.34152324 0.67293105 0.71332884
0.33188471 0.16211562 0.69980042
0.64754113 0.81790093 0.37131060
0.85012491 0.16659988 0.71514500
0.16687348 0.84456558 0.37934741
0.82510604 0.66319395 0.70880276
0.14525647 0.31800442 0.37418690
0.98876265 0.00231760 0.03874324
0.66962919 0.33713566 0.38476976
0.49452101 0.99384981 0.04147502
0.50928404 0.51285659 0.05283770
0.99310956 0.50940040 0.03190155
0.33892131 0.67646559 0.70847037
0.32583921 0.16183794 0.70428714
0.65466294 0.82661248 0.36634164
0.84915942 0.15452942 0.71199368
0.16773477 0.84103390 0.37680496
0.83377300 0.67001713 0.71403611
0.15784537 0.32902204 0.37121976
0.99893862 0.99766638 0.04643618
0.66508835 0.33782457 0.39085664
0.50304189 0.00763014 0.03958937
0.52104210 0.51118594 0.05422858
0.99346709 0.50543765 0.03604354
0.34055590 0.67417594 0.70449723
0.32329678 0.16111652 0.70717492
0.66097949 0.83542623 0.36367247
0.84039591 0.16105783 0.71256677
0.18035020 0.83915616 0.37859663
0.83010531 0.66848074 0.71352375
0.17199250 0.34235414 0.36694738
0.01234237 0.99783265 0.04183339
0.66440410 0.34059495 0.38494276
0.51022893 0.01132345 0.03860340
0.51644560 0.50443004 0.04348279
0.99649223 0.49352292 0.04352064
0.34094038 0.66942752 0.70517622
0.32126484 0.16373290 0.70569794
0.65620053 0.82983575 0.36737631
0.83325935 0.17473300 0.71323206
0.17999129 0.83306848 0.37695625
0.81880972 0.65845412 0.70375727
0.17496646 0.34288355 0.36610613
0.01300846 0.00175960 0.03813998
0.66619350 0.34024852 0.37635999
0.51177730 0.00519094 0.03970371
0.50343950 0.49595624 0.03750545
0.99128626 0.48633831 0.04337237
0.33838363 0.66634823 0.70848848
0.31847028 0.16482212 0.70614272
0.65173357 0.82269445 0.37552731
0.82983524 0.16996974 0.71152227
0.16767890 0.82453087 0.37194243
0.82149471 0.65779986 0.69814972
0.16798538 0.33508361 0.36742771
0.00672337 0.00160592 0.04290124
0.66541420 0.33284107 0.37192804
0.51043835 0.00358063 0.03665706
0.50465330 0.49490642 0.04707752
0.98590774 0.49397275 0.03843942
0.33504725 0.66786834 0.71236865
0.32186836 0.16546732 0.70779528
0.65674675 0.82819283 0.38600966
0.83257442 0.16015124 0.70639071
0.16490210 0.82179663 0.37519566
0.83778604 0.67011341 0.69913050
0.16379873 0.33291922 0.37292753
0.00425101 0.99972986 0.05255941
0.66382194 0.32795332 0.37397939
0.50825554 0.00750020 0.03246212
0.50872071 0.49612250 0.05264733
0.98733276 0.50428245 0.03702292
0.33394452 0.66589575 0.70890607
0.32885791 0.17012971 0.71155961
0.66571420 0.83828773 0.38591128
0.83851140 0.16107181 0.70489788
0.17105102 0.82687034 0.37818617
0.84428394 0.68003814 0.70574469
0.16495147 0.33704153 0.37405120
0.00873534 0.00076416 0.05549757
0.66520440 0.33263882 0.37133339
0.50446414 0.00555038 0.03096488
0.50053349 0.49660734 0.04600809
0.99802597 0.50655897 0.04125004
0.33245951 0.66109301 0.70585924
0.33469346 0.17538747 0.71239068
0.67577432 0.84306624 0.38114801
0.83807533 0.16903979 0.70872004
0.17374104 0.83305550 0.37665245
0.83754272 0.67197262 0.70784469
0.16667136 0.33866988 0.37267006
0.01126209 0.00088657 0.04866889
0.66326964 0.33662274 0.36978728
0.49958522 0.99955408 0.02960964
0.49207466 0.49957770 0.03633882
0.00743206 0.50266543 0.04545228
0.32828940 0.66300648 0.70694161
0.33374228 0.17620481 0.70879859
0.68269806 0.84258078 0.37682647
0.83460205 0.17368658 0.71145200
0.16824779 0.83458396 0.37209815
0.83218571 0.66321651 0.70298118
0.16888144 0.33454876 0.37035833
0.00298448 0.99912606 0.04311498
0.65967104 0.33401175 0.37330855
0.49466766 0.99437579 0.03462288
0.49732764 0.50338353 0.03495384
0.00747744 0.50267623 0.04868507
0.32505363 0.66857811 0.70875273
0.33149542 0.17351148 0.70949252
0.68206699 0.83880671 0.37469877
0.83348678 0.16708943 0.70892949
0.16409110 0.83589032 0.36965315
0.83706228 0.66848429 0.70236264
0.17057073 0.33066993 0.36970320
0.99034991 0.99705548 0.04359907
0.65916794 0.32659344 0.37719690
0.49305041 0.99337135 0.04260609
0.50623358 0.50219489 0.04104816
0.00464832 0.50849744 0.04525736
0.32595394 0.67010570 0.71334140
0.33689283 0.17196502 0.71342514
0.67409711 0.83629565 0.37621770
0.83286978 0.15924782 0.70003770
0.16519156 0.83744824 0.37203579
0.84320524 0.67461264 0.70627360
0.17227785 0.33222730 0.37275020
0.98815556 0.99609476 0.04597453
0.65992914 0.32107670 0.37978427
0.49608012 0.99804338 0.04486245
0.50919808 0.50069141 0.04446685
0.00012676 0.50305837 0.03699057
0.33112742 0.66804107 0.71458577
0.34147173 0.17139550 0.71563918
0.66611971 0.83829700 0.37597229
0.83263584 0.16294454 0.69614358
0.16780427 0.83540485 0.37227982
0.84021654 0.66992419 0.70866071
0.17697336 0.33807495 0.37300297
0.99663961 0.99749405 0.04464019
0.66139430 0.32560561 0.37794199
0.50055573 0.99897140 0.04410070
0.50324065 0.50255064 0.03942282
0.99844193 0.48981082 0.03864529
0.33199785 0.66200217 0.71325940
0.34005575 0.16955205 0.71198095
0.66296662 0.83964657 0.37526808
0.83028372 0.17241423 0.70107800
0.16767286 0.83439189 0.37083287
0.83344676 0.66114688 0.70618505
0.17918772 0.33991112 0.37311963
0.99887822 0.99791146 0.03971695
0.66421951 0.33455140 0.37542578
0.50574696 0.99748724 0.04206861
0.49692894 0.50155338 0.03227223
0.99943612 0.49003408 0.04482334
0.32668425 0.65840211 0.71339763
0.33515911 0.16706300 0.70510658
0.66483191 0.83673432 0.37681809
0.82688713 0.17360678 0.70588674
0.16580303 0.83469791 0.36936866
0.83159435 0.65903461 0.70255067
0.17546095 0.33524479 0.37429261
0.99186513 0.99754389 0.03856397
0.66788998 0.33535260 0.37671311
0.51232354 0.00270750 0.04293327
0.49324872 0.49552895 0.03354940
0.00061727 0.50138482 0.05008932
0.32257136 0.66131394 0.71048892
0.33118529 0.16443538 0.70607456
0.66717356 0.83351926 0.37854824
0.82489448 0.16476670 0.70711840
0.16595547 0.83446677 0.36889947
0.83844103 0.66810110 0.70712326
0.16957448 0.33237606 0.37444903
0.98939656 0.99775094 0.03670952
0.67013621 0.33154285 0.37985256
0.51318103 0.00847834 0.04410626
0.49389193 0.49363480 0.03969293
0.99921226 0.50893485 0.05010409
0.32562950 0.66399020 0.70786958
0.33526983 0.16393092 0.71106148
0.66509753 0.83203093 0.38169971
0.82435774 0.15742749 0.70528491
0.16873804 0.83594601 0.37145069
0.84677761 0.67834159 0.71313287
0.16878801 0.33614983 0.37777009
0.99394730 0.99866842 0.03430647
0.66814391 0.33093259 0.38022209
0.50599040 0.00474367 0.04437263
0.49545559 0.49457776 0.04094424
0.99690592 0.50696179 0.04547302
0.33357842 0.66341345 0.70338911
0.34308163 0.16865298 0.71330937
0.66338619 0.83108383 0.37831695
0.82891730 0.16190023 0.70707207
0.16895239 0.83738444 0.37297195
0.84520128 0.67440713 0.71656380
0.17200761 0.34100275 0.37815007
0.99888864 0.99949507 0.03468637
0.66736177 0.33836558 0.37337344
0.49960642 0.99732544 0.04463556
0.49139680 0.49629617 0.03930730
0.00318605 0.50179333 0.04326112
0.33476336 0.66391035 0.69963369
0.34119591 0.17028331 0.71037005
0.66736600 0.83196162 0.37333321
0.83487942 0.17108018 0.71283701
0.16405029 0.83568152 0.37473611
0.83561857 0.66358684 0.71582961
0.17197865 0.33801676 0.37647495
0.00038815 0.00039845 0.03578726
0.66645433 0.34633731 0.36764950
0.49906085 0.99901547 0.04273703
0.49045137 0.49878686 0.03767335
0.01159928 0.50244909 0.04410510
0.33132273 0.66713139 0.69907686
0.33060456 0.16524198 0.70575972
0.67192730 0.83205934 0.37320019
0.83860927 0.17275288 0.71232658
0.16161821 0.83299860 0.37539496
0.83167356 0.66689479 0.71122309
0.16655796 0.33121267 0.37666427
0.99728733 0.99815677 0.03989087
0.66559252 0.34284046 0.36650859
0.50226569 0.00871485 0.04516997
0.49669407 0.49839479 0.04154122
0.00733952 0.50596851 0.04298747
0.33323229 0.67086672 0.70040945
0.32780264 0.16160277 0.70822846
0.66929093 0.82420160 0.37451242
0.83876974 0.16700302 0.70880104
0.16643226 0.83153726 0.37510821
0.83368582 0.67679236 0.71464237
0.16395047 0.33050800 0.37886255
0.99472665 0.99650001 0.04254136
0.66633740 0.33321072 0.36838882
0.50429002 0.01181129 0.04589354
0.50223141 0.49622483 0.04475320
0.00022510 0.50721124 0.03800453
0.33935095 0.66930513 0.70309087
0.33556891 0.16075654 0.71022611
0.66304545 0.81833604 0.37479838
0.83330914 0.15991229 0.70314539
0.17071532 0.83242561 0.37771580
0.83105764 0.67456690 0.72138513
0.16660937 0.33394173 0.38182004
0.00157496 0.00047145 0.04153573
0.66462036 0.33016335 0.37154354
0.50338883 0.00329884 0.04192597
0.50392413 0.50045734 0.04317657
0.00057964 0.50214991 0.03393319
0.34376664 0.66539316 0.70463859
0.34048743 0.16093649 0.70791957
0.66155740 0.82645826 0.37192584
0.82770727 0.16143359 0.70195846
0.16961360 0.83271535 0.38028573
0.82517990 0.66441957 0.71830212
0.16528127 0.33563714 0.37951657
0.01352198 0.00812128 0.04046230
0.66454335 0.33494017 0.36891635
0.49874665 0.99270527 0.04131470
0.50017969 0.50879867 0.03986158
0.00381201 0.49264471 0.03661454
0.34076197 0.66440805 0.70633741
0.33201775 0.16081794 0.70535171
0.66596286 0.83910721 0.37019298
0.82819078 0.16748390 0.70765877
0.16576226 0.83155328 0.38007117
0.82360310 0.66210733 0.70702548
0.15866030 0.33281980 0.37635773
0.01493489 0.00585675 0.03940601
0.66915849 0.33603915 0.36571464
0.49781911 0.99204301 0.04217187
0.49483396 0.51302253 0.03738382
0.00304071 0.49245081 0.03981764
0.33736551 0.67085015 0.70902529
0.32249415 0.15809206 0.70336235
0.67292502 0.84487191 0.37341028
0.83406959 0.17026266 0.71258256
0.16244022 0.83113399 0.37674737
0.82530074 0.66877604 0.69884068
0.15133650 0.32555074 0.37701947
0.01122908 0.99941133 0.04198103
0.67429754 0.32827216 0.36937381
0.50096078 0.00381889 0.04465049
0.49484808 0.50918452 0.04264951
0.99775858 0.50182876 0.04008235
0.34201346 0.68064191 0.70870299
0.32889398 0.16008808 0.70809862
0.67685783 0.84046589 0.37412234
0.83524905 0.16746968 0.71506448
0.16015885 0.82750502 0.37388760
0.82781486 0.67292042 0.70395983
0.14864371 0.32481010 0.37687065
0.00816489 0.00034987 0.04124928
0.67750187 0.32506807 0.37720541
0.49613117 0.00681861 0.04694026
0.49969833 0.50569084 0.04997602
0.99476085 0.50316288 0.03710890
0.34935493 0.68025392 0.70990192
0.34656297 0.17151360 0.71123493
0.67281934 0.83010571 0.37040253
0.82963682 0.16353934 0.71179712
0.15949893 0.83086758 0.38038634
0.82685980 0.66330404 0.70990572
0.15128639 0.32853702 0.37656394
0.01042762 0.00976137 0.03688436
0.67713147 0.33301785 0.38201172
0.48126982 0.98970746 0.04595281
0.50387038 0.50527198 0.05093760
0.99837516 0.49614328 0.03433846
0.34921218 0.67563381 0.70929030
0.35180047 0.18269066 0.70658445
0.66877799 0.82844350 0.36258621
0.83020277 0.16402861 0.70434674
0.15758714 0.83990449 0.38860236
0.82270964 0.64886436 0.70758703
0.15333002 0.33026552 0.37454145
0.01200338 0.01393505 0.03749165
0.67559121 0.34528082 0.37911978
0.47275672 0.97495978 0.04475361
0.51098739 0.51072182 0.04753869
0.00304299 0.49150192 0.03622536
0.33918480 0.67575785 0.70851506
0.33740291 0.17900095 0.70167252
0.67052869 0.83412645 0.35833721
0.83587811 0.16715721 0.70488971
0.16099011 0.84043075 0.38776668
0.81780270 0.64384681 0.70228339
0.15385898 0.33259861 0.37247108
0.00928785 0.00964083 0.03915125
0.67458873 0.34473953 0.37736395
0.47982342 0.98329856 0.04257784
0.52420525 0.51996008 0.04388181
0.00241363 0.49336501 0.03847685
0.33138778 0.67436330 0.71183545
0.31921260 0.16224419 0.69450070
0.67244762 0.83040034 0.36865848
0.84212225 0.16661614 0.71565291
0.17113838 0.83440010 0.38193226
0.81632926 0.65468087 0.69986025
0.15372341 0.32931878 0.37490388
0.00498113 0.00120613 0.04353760
0.67592503 0.33429599 0.38115687
0.49186572 0.00443523 0.04117535
0.53573941 0.52275604 0.04439400
0.99783807 0.49596933 0.03709181
0.33726864 0.67680715 0.71313763
0.31623335 0.15487128 0.69383366
0.66318423 0.81437310 0.37469093
0.85206528 0.17336062 0.72518966
0.17981491 0.82960797 0.37720985
0.82229237 0.67090770 0.70431586
0.15907340 0.32564113 0.37492425
0.99985563 0.99753144 0.04801711
0.67731670 0.32752317 0.38605399
0.48987879 0.00441540 0.04193450
0.52881869 0.51235846 0.04961983
0.99623449 0.49575656 0.03009046
0.34606841 0.67755723 0.71259826
0.33071117 0.16659863 0.70002886
0.65852744 0.81656277 0.36650937
0.85171602 0.18256683 0.72051886
0.18509044 0.83329219 0.37957409
0.82585876 0.66795439 0.70479380
0.16955618 0.33069440 0.36950419
0.99899970 0.00157136 0.04587061
0.67209586 0.33150482 0.38665501
0.48191395 0.98776604 0.03913695
0.50980176 0.49583193 0.04859060
0.99645481 0.49732688 0.02908768
0.34742144 0.67271334 0.71378609
0.33714437 0.17773338 0.70656045
0.65891996 0.83124789 0.36265456
0.83589351 0.17440192 0.70681884
0.18617952 0.84510960 0.38268211
0.83340788 0.66283959 0.69889511
0.16956894 0.33452718 0.36528243
0.00798481 0.00563896 0.04049510
0.67076959 0.34187181 0.38239675
0.47970049 0.97889287 0.03264238
0.49851234 0.48747792 0.04119841
0.98978348 0.49933403 0.04161296
0.33758673 0.66690020 0.71435676
0.32693631 0.17481835 0.70983316
0.65394417 0.83883170 0.37171842
0.82923523 0.16351768 0.70574115
0.18137257 0.85033417 0.38076740
0.83515009 0.66737335 0.69863279
0.16436334 0.33778887 0.36420644
0.01534135 0.00890626 0.04028847
0.67837165 0.34121026 0.37682114
0.48434662 0.98698159 0.02787788
0.50190092 0.49240842 0.03633095
0.97885674 0.49651287 0.05429497
0.32654163 0.66448294 0.71419436
0.31763225 0.16273389 0.70621134
0.65084349 0.83517709 0.38183764
0.83807221 0.16319949 0.71488023
0.17596041 0.84274777 0.38081558
0.82722108 0.66818849 0.70426542
0.16803591 0.33925325 0.36708370
0.01108378 0.00651404 0.04597017
0.67712656 0.32937951 0.37663272
0.49299232 0.00140907 0.02724414
0.50632100 0.49572649 0.03910899
0.98156164 0.49852671 0.05630069
0.32717775 0.66778998 0.71151940
0.31739410 0.15828896 0.70271854
0.65867671 0.83068414 0.38430662
0.84797756 0.16951689 0.71954918
0.17232783 0.83215142 0.37974104
0.82346082 0.66566812 0.70696070
0.16969144 0.33005369 0.36456699
0.99887655 0.00137954 0.04752278
0.66937845 0.33003141 0.37820662
0.50085417 0.00691976 0.03353979
0.50735761 0.49482019 0.04462624
0.99918963 0.50875145 0.04666941
0.33592201 0.67061505 0.71055978
0.32736179 0.16851684 0.70656901
0.66360665 0.83104513 0.38109941
0.84233431 0.17318190 0.71587064
0.17617863 0.82728978 0.37766893
0.82739151 0.66364061 0.70513969
0.16486218 0.32295892 0.36207913
0.98979727 0.00029821 0.04178511
0.66629954 0.33886557 0.37518265
0.50639394 0.00237258 0.04179237
0.50862957 0.49579691 0.04370364
0.00858209 0.51120161 0.03856665
0.33875010 0.66599956 0.70799819
0.33344224 0.17266464 0.71413227
0.66085153 0.83435017 0.37932721
0.83218102 0.16925199 0.70587296
0.18005884 0.83148816 0.37587702
0.83184152 0.66416659 0.70308849
0.16305076 0.32445687 0.36760987
0.99026460 0.00212710 0.03591144
0.66922683 0.34436797 0.37011804
0.50478206 0.99857267 0.04117668
0.51390675 0.50213817 0.04005738
0.00089005 0.50178881 0.04017387
0.33216855 0.66059836 0.70549681
0.33238855 0.16524155 0.71730227
0.65787293 0.83481320 0.37825247
0.83871762 0.16806832 0.70208299
0.17634236 0.83767490 0.37333573
0.83258338 0.66629722 0.70423228
0.16644145 0.33085530 0.37412333
0.99515099 0.00379096 0.03863670
0.67035223 0.34326405 0.37081314
0.50083800 0.99944786 0.03537179
0.51366926 0.50721149 0.04215447
0.99077763 0.49443528 0.04547832
0.32495830 0.65980545 0.70888141
0.33824340 0.16433160 0.71140636
0.65933795 0.83251947 0.37715300
0.85032773 0.17283687 0.70552707
0.17070927 0.83495152 0.37027537
0.83229971 0.66871522 0.70715361
0.17295172 0.33792187 0.37394124
0.99815599 0.00482760 0.04612617
0.66750661 0.33641466 0.37675757
0.50357172 0.00081299 0.03229556
0.50277033 0.50460312 0.04437589
0.98996983 0.49408238 0.04536526
0.32331361 0.66307767 0.71447490
0.33876187 0.16489393 0.70909331
0.66656217 0.83114456 0.37560846
0.84558503 0.17436647 0.70486008
0.16703575 0.82930249 0.36805107
0.83419568 0.67060659 0.70662832
0.17723283 0.33511929 0.37179688
0.99955664 0.00365824 0.04978957
0.66286978 0.32966797 0.37980906
0.50902564 0.00122127 0.03600491
0.49032900 0.49581527 0.04251255
0.99847608 0.50358903 0.03978319
0.32684647 0.66457937 0.71511046
0.33430156 0.16830094 0.71327764
0.67069212 0.83712573 0.37655702
0.83212595 0.17128942 0.70153766
0.16318198 0.82780814 0.36883445
0.83593420 0.66431471 0.70286944
0.17333387 0.32865522 0.37333600
0.00332715 0.00406054 0.04656413
0.66040092 0.33063004 0.37683106
0.50889382 0.99975940 0.04243627
0.48719567 0.49070153 0.03854410
0.00281353 0.50688622 0.03878528
0.33361413 0.66322002 0.71037219
0.33336938 0.17179993 0.71810112
0.67006425 0.84485244 0.37905282
0.82304553 0.16721705 0.70284175
0.15915805 0.82928703 0.37041545
0.84181714 0.66052413 0.70356072
0.17041994 0.33090369 0.37563028
0.00744922 0.00239649 0.04358509
0.66248401 0.33528360 0.37339969
0.50184700 0.99818253 0.04278773
0.49810728 0.49695215 0.03694990
0.99925573 0.50509185 0.04363705
0.33570124 0.66462183 0.70738407
0.33407129 0.17148758 0.71460330
0.67391873 0.84375081 0.37784966
0.82396339 0.16215188 0.70693686
0.15347234 0.83219418 0.37059536
0.84467602 0.66624256 0.70550296
0.17342058 0.33648009 0.37800546
0.00591248 0.99845925 0.04614127
0.66376775 0.33334708 0.37493057
0.49804147 0.99998513 0.03868023
0.50220418 0.50394859 0.03666201
0.99859406 0.50659204 0.04788073
0.33280063 0.66754053 0.70818752
0.33779464 0.17096141 0.70810472
0.67398409 0.83687922 0.37455983
0.82874166 0.16092302 0.70779941
0.15005219 0.83102609 0.36921175
0.83867792 0.66780856 0.70764114
0.17811184 0.33986953 0.37728402
0.99655097 0.99453464 0.04568561
0.66314747 0.32715756 0.37626314
0.50595424 0.00389173 0.03822985
0.49395316 0.50471498 0.03801983
0.00646844 0.50986171 0.04763837
0.33431339 0.67048519 0.70823093
0.34025583 0.17005439 0.70658439
0.67021260 0.83249195 0.37539037
0.82818994 0.16270639 0.70425439
0.15414002 0.82962476 0.37068695
0.83580681 0.66535783 0.71100870
0.17482078 0.33540347 0.37513563
0.99171931 0.99464056 0.03774921
0.66300817 0.32856377 0.37273101
0.51159117 0.00497837 0.04257088
0.49063083 0.50142637 0.04148471
0.01366739 0.51229321 0.04264268
0.33976605 0.67116050 0.70438516
0.33666733 0.16935166 0.70894184
0.66884874 0.83309370 0.37807122
0.82360025 0.16062843 0.70249601
0.16364661 0.83086495 0.37517783
0.83978036 0.66768482 0.71178884
0.16808897 0.33278623 0.37736925
0.99656711 0.99784222 0.03208213
0.66389882 0.33463985 0.36902848
0.50732576 0.00015784 0.05033880
0.49685751 0.49896565 0.04444988
0.00678642 0.50358381 0.04046900
0.33732601 0.66539087 0.70061142
0.33456555 0.16719477 0.70959810
0.66807512 0.83361120 0.37412758
0.82150887 0.15850617 0.70640470
0.16890117 0.83189981 0.37708811
0.84501573 0.67352206 0.71405277
0.16824360 0.34112693 0.37959974
0.99794814 0.99524738 0.03320532
0.66378782 0.33620799 0.36886541
0.50268373 0.00004648 0.05147069
0.50270954 0.49918547 0.04286279
0.99541097 0.48908908 0.04274166
0.32733631 0.66158275 0.70560270
0.33674111 0.16708186 0.70280684
0.66781281 0.82796523 0.37111837
0.82911252 0.16377489 0.70836678
0.16573412 0.83393810 0.37626462
0.84726738 0.67825894 0.71687021
0.17106545 0.34819476 0.37916268
0.99569266 0.99325326 0.03804931
0.66059071 0.33224927 0.37187643
0.50509768 0.00802934 0.04556659
0.49998113 0.49975542 0.04057685
0.99432511 0.48452279 0.04477141
0.32266847 0.66371044 0.70947207
0.33830141 0.17048461 0.69819722
0.66806360 0.82435073 0.37305321
0.83942085 0.17370867 0.70745974
0.16280311 0.83362074 0.37455398
0.84325931 0.67686327 0.71770478
0.17147607 0.34547307 0.37779393
0.99635518 0.00033843 0.04092268
0.66241016 0.32847031 0.37307356
0.50743379 0.00741602 0.04449489
0.49060567 0.49732568 0.03930161
0.00039331 0.49154044 0.04283374
0.32707106 0.66811647 0.70544297
0.33597075 0.17121918 0.70403558
0.66748468 0.82972325 0.37658197
0.83576528 0.17525804 0.70727861
0.16551127 0.83135709 0.37579262
0.83715139 0.67100528 0.71587701
0.16936962 0.33882999 0.37732008
0.00224608 0.00519426 0.03892483
0.66814916 0.32743181 0.37148487
0.50405926 0.00341254 0.04605795
0.48686609 0.49186966 0.03864795
0.00308925 0.50124762 0.03809287
0.33463032 0.66931899 0.70134565
0.33053747 0.16805205 0.70949653
0.66772922 0.83393420 0.37810293
0.82579769 0.16642699 0.70655390
0.16736200 0.83254126 0.37888759
0.83703955 0.67185980 0.71066238
0.16580695 0.33492556 0.37836375
0.00756243 0.00221439 0.04050146
0.67017993 0.33027974 0.37030343
0.49706025 0.00418329 0.04587116
0.49279930 0.49111668 0.04109916
0.00326371 0.50414915 0.03675731
0.33652997 0.66531768 0.70420902
0.33350382 0.16776091 0.70900257
0.66835849 0.83344937 0.37253314
0.82292103 0.16216979 0.71172177
0.16638435 0.83780864 0.37753363
0.83804441 0.67550824 0.70785872
0.16752063 0.33788149 0.37670003
0.00615093 0.99755451 0.04708929
0.67084201 0.33505163 0.37260365
0.49119624 0.00321458 0.04204679
0.49920510 0.49826858 0.04183831
0.00356970 0.49888854 0.03848479
0.33438711 0.66566690 0.71079867
0.34162247 0.16820984 0.70525654
0.67147031 0.83373140 0.36739727
0.83043100 0.16644275 0.71551394
0.16351623 0.84148569 0.37465977
0.82768621 0.67040399 0.70633304
0.17253398 0.33696738 0.37699596
0.00044920 0.99284767 0.04763752
0.67333130 0.33545746 0.37459800
0.48797519 0.99840213 0.03773042
0.49684640 0.50450668 0.03997125
0.00435810 0.49784674 0.04091438
0.33740922 0.67378568 0.71242929
0.34482578 0.17100366 0.70517824
0.67125167 0.83449818 0.36883096
0.84206662 0.17275744 0.71079067
0.16200460 0.83656590 0.37635296
0.81582385 0.66419734 0.70567645
0.16516681 0.32620219 0.37715143
0.99673632 0.99374783 0.03925718
0.67519062 0.33204821 0.37061881
0.49119851 0.99495812 0.03914546
0.49041386 0.50166431 0.04035221
0.00792580 0.50294524 0.03826911
0.34576415 0.67643700 0.70787384
0.34521547 0.17080124 0.71039354
0.66417216 0.83085806 0.37261027
0.83936628 0.17760217 0.70784574
0.16944774 0.83150245 0.37935252
0.81716754 0.66745776 0.70703027
0.15303064 0.31881829 0.37259249
0.99961207 0.99752379 0.03518574
0.67403195 0.33250526 0.36721404
0.49733819 0.99637693 0.04245465
0.49398134 0.49420897 0.04216965
0.00458795 0.50344671 0.02841075
0.34859580 0.67015132 0.70572726
0.34128148 0.16352998 0.71055326
0.66410267 0.82689425 0.37219744
0.83174250 0.17521434 0.70939824
0.17783925 0.83544732 0.37725819
0.82296164 0.67544055 0.70360449
0.15358194 0.31861357 0.37222056
0.00448344 0.00125179 0.04378433
0.66843229 0.33731555 0.37282453
0.49836774 0.99856260 0.04333908
0.51069019 0.49848745 0.05023998
0.99742892 0.49485906 0.02815166
0.33928777 0.66252218 0.71029269
0.33251470 0.15490178 0.70262565
0.66716253 0.82803128 0.36668668
0.83653818 0.17194856 0.71506313
0.17730055 0.84098233 0.37237874
0.82433653 0.67135534 0.70335299
0.15736969 0.32446153 0.37517459
0.00158724 0.00282459 0.05081059
0.67054206 0.34377299 0.38207673
0.49161726 0.99622789 0.03791525
0.52245001 0.51054663 0.05555868
0.99733750 0.48927866 0.03812151
0.32550497 0.65869622 0.71931894
0.32512194 0.15247472 0.69671864
0.66558409 0.83532253 0.36534323
0.84795431 0.16992634 0.72001234
0.17024764 0.84180330 0.37122551
0.82126864 0.66145555 0.70798636
0.15469960 0.33091893 0.37605106
0.99722043 0.00350011 0.04803601
0.67712800 0.34305164 0.38510361
0.48460260 0.99438525 0.03248237
0.51889420 0.51328933 0.05056731
0.00517167 0.50539625 0.04395969
0.32236531 0.66041014 0.72144294
0.31045673 0.14750484 0.70236194
0.66871129 0.84515873 0.37057507
0.85694791 0.17155957 0.71681524
0.16393659 0.83659631 0.37692300
0.82454947 0.66225002 0.70577983
0.14995504 0.33022108 0.37245917
0.00127289 0.00736671 0.03975204
0.68090353 0.33694272 0.38110218
0.48589689 0.99800937 0.03632714
0.50790997 0.50546090 0.04209591
0.00871835 0.52103077 0.04434646
0.32866585 0.66394929 0.71452422
0.30440287 0.14633012 0.71775023
0.66305872 0.84396980 0.37059870
0.85631017 0.17520775 0.70921718
0.16967108 0.83229655 0.38089317
0.83486106 0.66606887 0.69758978
0.15336730 0.32841390 0.35994193
0.00594688 0.00854290 0.03911118
0.67632033 0.33641264 0.37952972
0.49181996 0.00162600 0.04313429
0.51240412 0.50250236 0.04053555
0.00309084 0.51797090 0.04252642
0.34093651 0.67007059 0.70852684
0.31430529 0.15508585 0.72237318
0.66081980 0.83646130 0.37080777
0.84530670 0.17015678 0.70321699
0.18031538 0.83236242 0.37976317
0.84110644 0.66811959 0.68952771
0.16050724 0.32791351 0.34884350
0.00201477 0.00103773 0.04849725
0.66667021 0.34025693 0.38443433
0.48975866 0.99791189 0.04421669
0.52506582 0.50886060 0.04407737
0.99633858 0.50286747 0.04296060
0.34955875 0.67595366 0.70987238
0.32859166 0.17135991 0.71244383
0.66241018 0.83004901 0.37442635
0.84351833 0.16178397 0.70906544
0.18334761 0.83304288 0.37911392
0.83430188 0.66552750 0.69093912
0.16262676 0.33041504 0.35272842
0.00132874 0.00214674 0.04912381
0.66416222 0.33969642 0.38465590
0.48311602 0.99164447 0.03733814
0.52083515 0.51527124 0.04070171
0.99592160 0.48928523 0.04550043
0.34188127 0.67157678 0.71403255
0.34141752 0.18417590 0.70028049
0.65834729 0.83225696 0.37496318
0.84820842 0.16226492 0.71770024
0.18316919 0.83560921 0.38284212
0.81766088 0.65050196 0.70439898
0.16252902 0.33608519 0.36663733
0.00508056 0.00456017 0.03756739
0.66614825 0.33135881 0.37685215
0.49020260 0.99703666 0.02850006
0.50704493 0.51272071 0.03345938
0.98883512 0.48411701 0.04726862
0.32800770 0.66335162 0.71081195
0.33977236 0.18487338 0.69608329
0.65324659 0.83410979 0.37719158
0.84893979 0.16541552 0.71392110
0.18402956 0.83981896 0.38734040
0.81213264 0.63923734 0.71204559
0.16669603 0.33575320 0.37358444
0.01171378 0.00788662 0.03148607
0.65804790 0.32148223 0.36869967
0.50794810 0.00496682 0.02863862
0.50315345 0.50760583 0.03211734
0.97647369 0.48515212 0.04593518
0.32755912 0.66324819 0.70360185
0.33443960 0.18091752 0.70410001
0.65236625 0.82372397 0.37950443
0.84459155 0.17073194 0.70414902
0.18947443 0.83860518 0.38325319
0.82439889 0.64993839 0.70939835
0.16801352 0.33226050 0.37052441
0.01491166 0.01132434 0.03969372
0.64883376 0.32099931 0.37344041
0.51582594 0.00014454 0.03604249
0.51251917 0.50483986 0.03936081
0.97250946 0.48682737 0.04114205
0.33350052 0.67745279 0.70266618
0.33480802 0.17321475 0.71466353
0.66175735 0.81777199 0.38128203
0.83721786 0.17101974 0.70202557
0.19386155 0.84266626 0.37665073
0.83710660 0.66463577 0.70295744
0.17047283 0.33425592 0.36881491
0.00966817 0.00890657 0.05199706
0.64712774 0.32713288 0.38588399
0.50941981 0.99851276 0.03735229
0.52355567 0.50652881 0.04561896
0.98107948 0.48892897 0.04129479
0.33588179 0.68403910 0.70734854
0.32626339 0.16242250 0.71739726
0.67226789 0.83192506 0.38457545
0.83924464 0.16665067 0.70457343
0.18968258 0.85038299 0.37544632
0.84502739 0.66831935 0.70392654
0.17125855 0.34076686 0.37545448
0.00097882 0.00452813 0.05241301
0.65419608 0.32842226 0.38529911
0.49840161 0.00359712 0.03424545
0.51492798 0.50452570 0.03992169
0.99508201 0.49383808 0.04501095
0.33102273 0.67126604 0.71114328
0.32606746 0.16236634 0.71547353
0.67362852 0.84915713 0.38799389
0.83871627 0.16514013 0.70609614
0.17626635 0.84749574 0.37479243
0.84530903 0.65969697 0.71138869
0.17429316 0.34350515 0.37852852
0.99217751 0.99916328 0.04472802
0.66283477 0.32624424 0.37373901
0.49154133 0.00289106 0.03210192
0.49885690 0.49967653 0.03334921
0.99200306 0.49749095 0.04638314
0.32834343 0.66493431 0.70735519
0.33602026 0.17513378 0.71182891
0.67467415 0.85384693 0.38691936
0.83733499 0.16615801 0.70181658
0.16495039 0.83688164 0.36875406
0.83473038 0.65197545 0.71053089
0.18089066 0.33600090 0.37244905
0.99478187 0.00059960 0.04612167
0.66339698 0.32719144 0.36798931
0.49421575 0.99457239 0.03260120
0.48917731 0.49426366 0.03390491
0.98631477 0.49954842 0.04812819
0.32968246 0.67208814 0.70530836
0.34200645 0.18218840 0.71252196
0.67504505 0.84709493 0.38307421
0.83268780 0.16888712 0.69459020
0.16458671 0.82460288 0.36227584
0.83294572 0.65824006 0.70451536
0.18107147 0.33062905 0.36597230
0.99855287 0.99990950 0.05136352
0.65983509 0.33075864 0.37670847
0.50330619 0.98969870 0.03459513
0.49088541 0.49320143 0.03748182
0.99218264 0.49783740 0.04907865
0.33387143 0.67896385 0.71212315
0.34384187 0.17903158 0.71606683
0.67592835 0.83885292 0.37926870
0.82342268 0.16997741 0.69511647
0.16504414 0.82043061 0.35590916
0.84055976 0.67429094 0.70631790
0.17397329 0.33423248 0.36748886
0.99488244 0.98828801 0.05030023
0.66330646 0.33418156 0.38040910
0.50867955 0.99256135 0.03840953
0.49988962 0.49638099 0.04122930
0.00120035 0.49629939 0.04872802
0.33778678 0.67458688 0.71761383
0.33703862 0.16769300 0.71241044
0.67683884 0.84238002 0.37917885
0.81872433 0.16532913 0.70209406
0.16126810 0.82670326 0.35647636
0.84469444 0.68302443 0.71137595
0.16524218 0.33466606 0.37657140
0.99223193 0.98639847 0.04178219
0.67059972 0.33533168 0.37387689
0.50605446 0.99341274 0.04383615
0.49864529 0.49992044 0.03829574
0.01003784 0.50006169 0.04584902
0.33342208 0.66137616 0.71494434
0.33616711 0.16010349 0.70623098
0.67433146 0.84788530 0.37715481
0.82171759 0.16161690 0.70743608
0.15356232 0.83120477 0.36335180
0.84272533 0.67218862 0.71320349
0.16577583 0.33517289 0.38323645
0.99260196 0.99469572 0.03662283
0.67743776 0.33845290 0.36799844
0.50336209 0.99416601 0.04611229
0.49123846 0.50057523 0.03565121
0.00927305 0.50472290 0.04388965
0.32563966 0.65709986 0.70887646
0.33986728 0.16162707 0.70501906
0.67104784 0.84188960 0.37278616
0.82809982 0.16179224 0.70586674
0.15191191 0.83410013 0.36910722
0.84011765 0.66500003 0.71341428
0.17557019 0.33685568 0.37902813
0.99832036 0.00374270 0.03982345
0.67401871 0.33955368 0.37094117
0.50468972 0.99693077 0.04753127
0.48918961 0.49738280 0.03927969
0.00045397 0.50436427 0.04330757
0.32625007 0.66659314 0.70803146
0.33728314 0.16586146 0.70910638
0.66464659 0.82902401 0.36820826
0.83198266 0.16694793 0.70196000
0.15821870 0.83273151 0.37255938
0.84286560 0.67725038 0.71256600
0.18034089 0.33732755 0.37390537
0.00436673 0.00656063 0.04263194
0.66549875 0.33691017 0.38062944
0.50657548 0.99804710 0.05115845
0.49233887 0.49650341 0.04014106
0.99982538 0.50206494 0.04039423
0.33295891 0.67478043 0.70729743
0.33056451 0.16212055 0.71417025
0.65978025 0.82270434 0.36556947
0.82878836 0.16940315 0.70357050
0.16045177 0.82929032 0.37391156
0.84706442 0.69048708 0.71281049
0.17864289 0.33580421 0.37781173
0.00373410 0.00071161 0.04154419
0.66321119 0.33689073 0.38122521
0.50572285 0.99927401 0.05494297
0.49665351 0.49669271 0.03789612
0.00571156 0.50340205 0.03871385
0.33696752 0.67173050 0.70355348
0.32667572 0.15651119 0.71235261
0.66168642 0.83108079 0.37082461
0.82686225 0.16521187 0.70743708
0.15838412 0.82971743 0.37738966
0.84692026 0.68473232 0.71410847
0.17376131 0.33421126 0.38359975
0.00286029 0.00236716 0.03766165
0.66725745 0.33866808 0.37278483
0.50599509 0.00276651 0.05339527
0.49318542 0.49038683 0.03527110
0.00985311 0.50435244 0.03895747
0.33511680 0.66178596 0.70037548
0.32955473 0.15932014 0.70499590
0.66333049 0.83836067 0.37693402
0.82758514 0.16120410 0.70921190
0.15761900 0.83086112 0.38012051
0.83950257 0.66638912 0.71469224
0.17128056 0.33615873 0.38163482
0.00058157 0.00672145 0.03602614
0.67430833 0.34282514 0.36917527
0.50989783 0.00645023 0.04582752
0.49005155 0.48752158 0.03652464
0.00415861 0.50257817 0.04006615
0.33032429 0.65946016 0.70196648
0.33568627 0.16640018 0.70211490
0.66241701 0.83296346 0.37551479
0.82861012 0.16022018 0.70775690
0.16036193 0.83190712 0.37728698
0.82974858 0.65610500 0.71340062
0.17379750 0.33840530 0.37504010
0.00105437 0.00373816 0.03954890
0.67329870 0.34060107 0.37093933
0.51332067 0.01272984 0.04086079
0.49163992 0.49093004 0.04257215
0.99473652 0.49850298 0.04125283
0.33097769 0.66476053 0.70628738
0.33586881 0.16843964 0.70506417
0.66580560 0.82777092 0.37419565
0.83003203 0.16269600 0.70534070
0.16495484 0.82925387 0.37569256
0.82724361 0.66107114 0.71220291
0.17117423 0.33920630 0.37272228
0.00556494 0.99843442 0.03940860
0.66748755 0.33090574 0.37418640
0.51261876 0.01509227 0.04222347
0.49532297 0.49812968 0.04580814
0.99674720 0.49496841 0.03932439
0.33567852 0.66670654 0.70782953
0.33218409 0.16702780 0.70666920
0.67341356 0.82922141 0.37499275
0.82812281 0.16720741 0.70767545
0.16722122 0.82512845 0.37495185
0.83447866 0.67163669 0.71221000
0.16181946 0.34009181 0.37565675
0.00691712 0.99628486 0.03670734
0.66664026 0.32677569 0.37270427
0.50539607 0.00766660 0.04593502
0.50036911 0.50616464 0.04548441
0.00527439 0.49806385 0.03706226
0.33804745 0.66626408 0.70458983
0.33085105 0.16570977 0.70369283
0.67611764 0.83429181 0.37394587
0.82664786 0.16969886 0.71297266
0.16618238 0.83212211 0.37726198
0.83993113 0.67162846 0.70989870
0.15745271 0.33627738 0.38000970
0.00482892 0.00323845 0.04014360
0.66920228 0.32992553 0.36839183
0.49757204 0.00368450 0.04421420
0.50212774 0.50440691 0.04179033
0.00661379 0.50185146 0.03578320
0.33506667 0.66665042 0.70335251
0.33486483 0.16563111 0.69932113
0.66953099 0.83423569 0.37118768
0.83114127 0.16929522 0.71410780
0.16567137 0.84372797 0.38059414
0.83230643 0.65920237 0.70673383
0.16164447 0.33463663 0.38244712
0.00109100 0.00695909 0.04404798
0.67153361 0.33368110 0.36953037
0.49320638 0.00443550 0.03948066
0.50089228 0.50049556 0.04253715
0.00095808 0.50188512 0.03653467
0.33323411 0.66868126 0.70886482
0.33990864 0.16840662 0.70020205
0.66242034 0.82684935 0.36947002
0.83870895 0.16806839 0.70968258
0.16991119 0.84683928 0.37708090
0.82185615 0.65305167 0.70699396
0.16761283 0.33759567 0.37744819
0.00221412 0.00046343 0.04556068
0.66954706 0.33264364 0.37385309
0.49087535 0.00290136 0.03890883
0.50192794 0.50227165 0.04899346
0.99775561 0.49885556 0.03829423
0.33981867 0.67495918 0.71424450
0.34022222 0.17346141 0.70682820
0.66497251 0.82640840 0.37092461
0.84259416 0.16723281 0.70615190
0.17413963 0.84050150 0.37430097
0.82143402 0.66234985 0.70769743
0.16604640 0.33613081 0.37291623
0.00753446 0.99677018 0.04510145
0.66589935 0.32544942 0.37771656
0.48908173 0.99741982 0.04112783
0.50589646 0.50841086 0.04767709
0.00120283 0.49439128 0.03691144
0.34776986 0.67862497 0.71289922
0.33631193 0.17511007 0.71025828
0.67034726 0.83524467 0.37303493
0.83790802 0.16689960 0.70936462
0.17113935 0.83373265 0.37600595
0.82445307 0.67012294 0.70547102
0.16128196 0.33020341 0.37305758
0.00576931 0.99827015 0.04204536
0.66759484 0.32676672 0.37738844
0.48557431 0.98783490 0.04050791
0.51065754 0.51219960 0.04120622
0.00595591 0.49734349 0.03766724
0.34484136 0.67410871 0.70893676
0.33485743 0.17235386 0.70809486
0.67064630 0.84075534 0.37544731
0.83111584 0.16918977 0.71538583
0.16861596 0.83600801 0.37960438
0.82358112 0.66291957 0.70270316
0.15945164 0.32503292 0.37167624
0.00258320 0.00567552 0.04172592
0.67127037 0.33575355 0.37595899
0.48515512 0.98577135 0.03413002
0.51002560 0.50360633 0.04041969
0.00125121 0.50200002 0.04105485
0.33513280 0.66648550 0.70952331
0.33700455 0.16971799 0.70534927
0.66600295 0.83627162 0.37717825
0.83403483 0.16781446 0.71420364
0.17316275 0.83908380 0.37947825
0.82027546 0.65308178 0.69850744
0.15953586 0.32835346 0.36905540
0.00105144 0.01009688 0.04183503
0.67408638 0.33808417 0.38040487
0.48909135 0.98949270 0.02999274
0.50792391 0.49740641 0.04284645
0.99437598 0.50172120 0.04579434
0.33107202 0.66172330 0.71253059
0.34110035 0.17132657 0.70931098
0.66288535 0.82935494 0.37568884
0.84458203 0.16325511 0.70731080
0.18081660 0.83607221 0.37230918
0.82147085 0.65766547 0.69611227
0.15977778 0.33388079 0.36599606
0.00107499 0.00424853 0.04135324
0.67300040 0.33211627 0.38519162
0.49259289 0.99316872 0.03638228
0.50990438 0.50400168 0.04582598
0.99693026 0.49955712 0.05042736
0.33312854 0.65986094 0.71074468
0.34035923 0.17337882 0.71660990
0.66793295 0.83324478 0.37574245
0.85111797 0.16646985 0.70714156
0.18303696 0.83688507 0.37294911
0.82987289 0.67364976 0.69871559
0.15309904 0.32719634 0.36777381
0.00084208 0.99664930 0.03894711
0.66603738 0.32805460 0.38478753
0.49677265 0.99887230 0.04180502
0.51248595 0.51068523 0.04384801
0.99750593 0.49225745 0.04694401
0.33311188 0.65969521 0.70470586
0.33403716 0.17066050 0.71653782
0.67137696 0.83997631 0.37750534
0.84638804 0.17912330 0.71560103
0.18103993 0.84027321 0.38147240
0.83881696 0.68172586 0.70120813
0.14886653 0.32155284 0.37133155
0.99509264 0.99676133 0.03891647
0.65757255 0.33079567 0.37993022
0.50049546 0.99968373 0.03870044
0.51033004 0.50858773 0.03898630
0.99089769 0.48439017 0.03931048
0.32876042 0.66038141 0.70026919
0.32836074 0.16061132 0.70837143
0.66476563 0.83728149 0.37650043
0.83975147 0.18806876 0.71834240
0.18171364 0.84620288 0.38267173
0.84211172 0.67575765 0.70348038
0.15896238 0.32552138 0.37302467
0.98883603 0.00243235 0.04335419
0.65822366 0.33845896 0.37143333
0.50117293 0.99945254 0.03301192
0.51071531 0.49873428 0.03786234
0.98685287 0.48549412 0.03759830
0.32375618 0.66118031 0.70376361
0.32328695 0.15233608 0.70137074
0.65484816 0.82896411 0.37728831
0.84598027 0.18515034 0.70901774
0.18811843 0.84875839 0.37726134
0.83324942 0.66731008 0.70725023
0.17379572 0.33701661 0.37211295
0.98441120 0.00951089 0.04637120
0.66333760 0.34780370 0.37039917
0.50357448 0.00110010 0.03301688
0.51343535 0.49338413 0.03954783
0.98825115 0.49114705 0.04368141
0.32203409 0.65827750 0.71164259
0.31493722 0.15481045 0.70423852
0.65424273 0.82397969 0.38226868
0.85619487 0.17330359 0.70058879
0.18916149 0.84162115 0.37267401
0.82847297 0.66800953 0.71103929
0.17639535 0.33726307 0.36805026
0.98072837 0.00000426 0.04481615
0.66447646 0.35148209 0.37496631
0.50903071 0.00242588 0.03818047
0.51437463 0.50303011 0.04308987
0.99403699 0.50050275 0.05006484
0.32527991 0.65764211 0.71644129
0.31433328 0.16121032 0.71284696
0.65817628 0.82659381 0.38648922
0.84719668 0.16519123 0.70934834
0.18485178 0.83228504 0.37256218
0.83719952 0.67491162 0.70918655
0.16487346 0.31944688 0.36747453
0.98516816 0.98580006 0.03745273
0.65949158 0.34569786 0.37497374
0.51408311 0.00157741 0.03965126
0.50996176 0.51090796 0.03885189
0.00255290 0.51155161 0.04946905
0.32749623 0.66490878 0.71643385
0.32490359 0.16141869 0.71658083
0.66065521 0.83521819 0.38618215
0.82916296 0.15812862 0.71648160
0.17368832 0.82598046 0.37583057
0.84741703 0.67520820 0.70020912
0.15550686 0.30687971 0.37196130
0.99835176 0.98797724 0.03329192
0.65859569 0.34243365 0.37186554
0.51812250 0.99989211 0.03417038
0.50934812 0.50707574 0.02705647
0.00576288 0.51471126 0.04803504
0.32549893 0.67094258 0.71058041
0.33517266 0.15785320 0.71647493
0.66016251 0.84056317 0.38290573
0.82746045 0.15004680 0.70784112
0.16506487 0.82633417 0.37027870
0.85224924 0.66952227 0.69765969
0.16478358 0.32365135 0.37074336
0.00457039 0.99875221 0.04179856
0.66353823 0.34592743 0.36992616
0.51739709 0.00076550 0.03129856
0.50159587 0.49543842 0.02390361
0.00745249 0.51354854 0.04555189
0.32272245 0.66850751 0.70554266
0.33775201 0.16164270 0.71820847
0.66487729 0.84288862 0.38556671
0.83414398 0.14994431 0.69469106
0.16434205 0.83189873 0.36266719
0.83924761 0.65821104 0.70940360
0.17860028 0.34504040 0.37016889
0.00303020 0.00899729 0.05249807
0.66735196 0.34563658 0.37371381
0.51394561 0.00548652 0.03562340
0.49008719 0.48619762 0.03087998
0.00733850 0.51293891 0.04317332
0.32557977 0.66090253 0.70597576
0.33338141 0.16943393 0.71946890
0.67372253 0.83874635 0.38761948
0.83129451 0.15830567 0.69253699
0.16122185 0.83340939 0.36291205
0.83119932 0.65944657 0.71615662
0.18309208 0.34971176 0.37744826
0.99977950 0.00662704 0.04832198
0.66366141 0.33515554 0.38062315
0.51424004 0.00714086 0.04022097
0.48449878 0.48949535 0.03908622
0.01350203 0.51696539 0.04520760
0.33000285 0.65909238 0.70917122
0.33281712 0.17387967 0.71455604
0.67214325 0.83241145 0.38500971
0.82161374 0.16330658 0.69973195
0.15427699 0.83270621 0.36687109
0.83576341 0.66378467 0.71516819
0.17280843 0.33788879 0.37752498
0.00002693 0.99743517 0.03512348
0.65625519 0.32095185 0.38476165
0.51500022 0.01004076 0.04137170
0.48468236 0.49401375 0.03973570
0.02134673 0.51592878 0.04501233
0.33330097 0.67245168 0.71014668
0.34150860 0.17930091 0.70324106
0.66634417 0.83135860 0.38097421
0.81396405 0.16399853 0.70403871
0.14914700 0.83215218 0.36862963
0.83993155 0.66152468 0.71214112
0.16738902 0.32716241 0.37774267
0.00359350 0.00201379 0.03496516
0.65764617 0.31852165 0.38420894
0.51504838 0.01513736 0.04218232
0.49060196 0.49459193 0.03569621
0.01196155 0.50163274 0.04239184
0.33262551 0.67817124 0.70771574
0.34365136 0.17510994 0.70143859
0.66489722 0.83702736 0.37459145
0.81383443 0.16207309 0.69852722
0.14987534 0.83042683 0.36386560
0.83893277 0.66034872 0.71148850
0.17984901 0.33042398 0.38243959
0.00326111 0.01250173 0.04598255
0.66626564 0.32630836 0.38075691
0.50672732 0.00812753 0.04808123
0.49762999 0.50028470 0.03480042
0.00019899 0.49246680 0.04361623
0.33020528 0.66579163 0.70864093
0.34118794 0.17071980 0.70998096
0.67189921 0.84384956 0.37224747
0.82007158 0.16212146 0.69617493
0.15538119 0.83028079 0.36036428
0.83371473 0.66000269 0.71637316
0.19228594 0.33789050 0.38274856
0.00346971 0.01326533 0.04998266
0.67065245 0.33018990 0.37982466
0.50058831 0.00096709 0.05344010
0.49763781 0.50540790 0.03731899
0.99803718 0.49365722 0.04254056
0.33163583 0.65645449 0.71018673
0.33573832 0.17003303 0.71211851
0.67890704 0.84115349 0.37531626
0.82810048 0.16089382 0.70150953
0.15841782 0.83107631 0.36460031
0.83694395 0.66437387 0.72018664
0.18599455 0.34190535 0.37679111
0.00251913 0.00134469 0.04133361
0.67045962 0.33297649 0.37795580
0.50398674 0.00165022 0.05134412
0.49019936 0.50181106 0.04078641
0.00057333 0.50062373 0.04187969
0.33499679 0.66140677 0.70822377
0.33438327 0.17293434 0.70675856
0.67793026 0.83650881 0.37454499
0.82234180 0.15432502 0.70953548
0.15978441 0.83109667 0.37103997
0.85129223 0.67628554 0.71714554
0.17255421 0.33914515 0.37296196
0.00094164 0.99367940 0.03503158
0.66286797 0.32689116 0.37350419
0.50703443 0.99988502 0.04512417
0.48492756 0.49713272 0.03860866
0.00036772 0.50511892 0.04086506
0.33952563 0.67834311 0.70463274
0.34019623 0.17851353 0.70442444
0.67011054 0.83501262 0.37068871
0.81433352 0.15087876 0.71239218
0.15697518 0.82969097 0.37155915
0.85665131 0.67819120 0.70972680
0.16728466 0.33149407 0.37622536
0.00378215 0.99912602 0.03890805
0.65848024 0.32299584 0.37060336
0.50206814 0.99791606 0.04449235
0.49022996 0.49498174 0.03514466
0.99405532 0.49882232 0.03643048
0.34055017 0.68413234 0.70300681
0.33973025 0.17514636 0.70579726
0.66331998 0.83255772 0.36873644
0.81696667 0.15562999 0.70989579
0.15691854 0.83028093 0.37020949
0.85338854 0.67804891 0.70834796
0.17370417 0.33387640 0.38310603
0.00358263 0.00486554 0.04330969
0.66596579 0.33185024 0.36851467
0.49547695 0.99751398 0.04775411
0.49699985 0.49745923 0.04000833
0.99013569 0.49375441 0.03765918
0.33967764 0.67359804 0.70520465
0.33021612 0.16235509 0.70702835
0.66628496 0.83158792 0.37031358
0.82368921 0.16168103 0.70899505
0.16497736 0.83423007 0.37530466
0.84713133 0.68203186 0.71397213
0.18083518 0.34668830 0.38441726
0.00048531 0.00545780 0.03950278
0.67625807 0.34017112 0.36785896
0.49540194 0.00052194 0.04869743
0.49536861 0.49947668 0.04652638
0.99139137 0.49342272 0.03894831
0.33966632 0.66046335 0.71043281
0.32188826 0.15641362 0.70395570
0.67290708 0.83059627 0.37054225
0.82828716 0.16565682 0.71024331
0.16911295 0.83600577 0.38098586
0.83872581 0.68014335 0.71398595
0.17927721 0.35023673 0.38300754
0.99973049 0.00130934 0.03298155
0.67906246 0.34339695 0.36939194
0.50046592 0.00390904 0.04679650
0.49228623 0.50157175 0.04920911
0.99605760 0.49732390 0.03578746
0.33735089 0.65685124 0.71138882
0.32336553 0.15982626 0.69789520
0.67130405 0.83050491 0.36749413
0.83058199 0.16712254 0.71206220
0.16959834 0.83746672 0.38167677
0.83454864 0.67354454 0.71225687
0.16854376 0.33962643 0.37904168
0.00045922 0.99706882 0.03362567
0.67390743 0.34093192 0.37144283
0.50354401 0.00425949 0.04337739
0.49363231 0.50079957 0.04578987
0.99950458 0.49858460 0.03318718
0.33592175 0.66496454 0.70967246
0.33290977 0.16723356 0.69699083
0.66143860 0.82963786 0.36622037
0.83530694 0.17361717 0.71282383
0.17252246 0.83873919 0.37955098
0.83397764 0.66647076 0.71157299
0.16055949 0.33039165 0.37686864
0.00531884 0.99906817 0.04221436
0.66973964 0.33808375 0.37200441
0.50051976 0.00329905 0.04289084
0.49682158 0.49585411 0.04093590
0.99836945 0.49429543 0.03367835
0.33700527 0.67006369 0.70628349
0.33625845 0.16700821 0.70499626
0.65655047 0.82856212 0.36778433
0.84204136 0.17840176 0.71176041
0.17436334 0.83569832 0.37949686
0.82942140 0.66263233 0.70989803
0.16189824 0.33098906 0.37817894
0.00809154 0.00359594 0.04727041
0.67304863 0.34073373 0.37146816
0.49477533 0.99926041 0.04611469
0.50138189 0.49765361 0.04248426
0.99925671 0.49517997 0.03586560
0.33923397 0.66588522 0.70506527
0.33344967 0.15893059 0.71024988
0.66259110 0.83243677 0.37268568
0.84326708 0.17395210 0.71021685
0.17289752 0.83504674 0.38243928
0.82317947 0.66153068 0.71136083
0.16277959 0.33312763 0.37734952
0.00641469 0.00451248 0.04397534
0.67735479 0.34371615 0.37364906
0.49334736 0.99448573 0.04531261
0.50097322 0.50128956 0.04568601
0.00311331 0.50285550 0.03730213
0.33939965 0.66270779 0.70840834
0.33223041 0.15557205 0.70672181
0.67236129 0.83701922 0.37710891
0.83968165 0.16790353 0.70798981
0.16935381 0.83683876 0.38120788
0.82045766 0.65887255 0.71147653
0.15528044 0.32848952 0.37181928
0.00205157 0.99887282 0.03962385
0.67677100 0.34275812 0.37793840
0.49572106 0.99363093 0.03953946
0.49679294 0.49682711 0.04517157
0.00331180 0.50825330 0.03991977
0.33661848 0.66610790 0.71089313
0.33450018 0.16251251 0.70247554
0.67274549 0.83888034 0.37571706
0.83390070 0.16510310 0.70805553
0.16696784 0.83481014 0.37491462
0.81988887 0.65857804 0.70647143
0.14814814 0.32370379 0.36694307
0.00078297 0.99430140 0.04056270
0.67162731 0.33711028 0.37873467
0.49699074 0.99606017 0.03547944
0.50006269 0.49425234 0.04438434
0.99909507 0.50586344 0.04426639
0.33707843 0.67526828 0.70960095
0.33674993 0.16969906 0.70569686
0.66353524 0.83985029 0.37337713
0.83432403 0.16959351 0.70984512
0.16689587 0.83140943 0.37149962
0.81968406 0.66236283 0.70162228
0.14915483 0.32571762 0.36560283
0.00447120 0.99774927 0.04522227
0.66782574 0.33125793 0.37730326
0.49416777 0.00006224 0.03684477
0.50975250 0.49879369 0.04513228
0.00019432 0.49952847 0.04787929
0.34052592 0.68042754 0.70595328
0.33662649 0.16947426 0.71139152
0.66077543 0.83598615 0.37352049
0.84402872 0.17795537 0.71014361
0.16626079 0.83188177 0.37395732
0.81957020 0.66783750 0.70084810
0.15893379 0.33364043 0.36707607
0.00567797 0.00335206 0.04811967
0.67132317 0.33513070 0.37656560
0.49010880 0.99702388 0.03938534
0.51491818 0.50723983 0.04762276
0.00950615 0.49950126 0.04753207
0.33900976 0.67311504 0.70480296
0.33394323 0.16258970 0.71252535
0.67093039 0.83493384 0.37707527
0.84952654 0.17737239 0.70852357
0.16749430 0.83641196 0.37813468
0.82114436 0.67211729 0.70315508
0.16802452 0.33812221 0.36909135
0.00115275 0.00319939 0.04532010
0.67269355 0.33751653 0.37716467
0.49060912 0.99275590 0.03768037
0.51201588 0.51229746 0.04730042
0.01237956 0.50405455 0.04341670
0.33170360 0.66449236 0.70863534
0.33250216 0.16086632 0.70864205
0.67591676 0.83533487 0.37782740
0.84784441 0.17278359 0.70733401
0.16946540 0.84003590 0.37752049
0.82467495 0.66949730 0.70270905
0.16807529 0.33524967 0.36942612
0.99935680 0.99739233 0.04115442
0.66307009 0.33179326 0.37824965
0.49463138 0.99770895 0.03629844
0.50814990 0.50718587 0.04402646
0.00348453 0.50549645 0.04016421
0.32500173 0.66314588 0.71087620
0.33239803 0.16836553 0.70615507
0.66845479 0.83092542 0.37486422
0.84524289 0.17092516 0.71015079
0.17267356 0.84023699 0.37183371
0.82982132 0.66143239 0.69925610
0.16213053 0.33113447 0.37144126
0.00050594 0.99315290 0.04009365
0.65199726 0.32886070 0.37927657
0.49851802 0.00403617 0.03766415
0.51155519 0.50092239 0.04217141
0.99381469 0.49804109 0.04044576
0.32520975 0.66613912 0.70682347
0.33457150 0.17558583 0.71141395
0.66266020 0.82747249 0.37305507
0.84548304 0.17341973 0.71398446
0.18269718 0.84162757 0.36920222
0.83428083 0.65816502 0.69964895
0.16375851 0.32928041 0.37568584
0.00060631 0.99889792 0.04252761
0.64621734 0.32834561 0.37876838
0.49756489 0.00035333 0.04112277
0.51874316 0.50562364 0.04227919
0.99341755 0.48798888 0.04223511
0.32756520 0.66874200 0.70527173
0.33427988 0.17386617 0.71979612
0.66912047 0.83122953 0.37615694
0.84575471 0.17209567 0.71122471
0.18699077 0.84158714 0.37310439
0.83497119 0.65976739 0.70035123
0.17362456 0.33218403 0.37917888
0.99575314 0.00613471 0.04384990
0.64826546 0.32849220 0.37676041
0.49465979 0.98881985 0.04441716
0.52289402 0.51722833 0.04098528
0.99510814 0.48684529 0.04606446
0.32336483 0.66385524 0.70962270
0.32945881 0.16912306 0.71914717
0.67856684 0.83945358 0.38195383
0.83806022 0.15826178 0.70613542
0.18093593 0.83935174 0.37897271
0.83620223 0.66440272 0.70390618
0.17850587 0.33616346 0.37536249
0.98935852 0.00222565 0.03823368
0.65223747 0.32590570 0.37337977
0.49772706 0.98549080 0.04101576
0.51604816 0.51841538 0.03953911
0.99170935 0.49493030 0.04791655
0.31975335 0.66365992 0.71323430
0.33040742 0.17255594 0.70928249
0.67485300 0.84204959 0.38476331
0.82871766 0.14868685 0.70298046
0.17571532 0.83317695 0.38168211
0.84265177 0.66729462 0.70911655
0.17646926 0.34021826 0.36766612
0.98663462 0.00033022 0.03561809
0.65257855 0.32071131 0.36995775
0.50486616 0.99543528 0.03332832
0.50135497 0.50027849 0.03733881
0.98419847 0.50100874 0.04713176
0.32195427 0.67317639 0.71026825
0.33657468 0.18266066 0.70444051
0.66158123 0.83615575 0.38223315
0.83072119 0.15595353 0.70321852
0.17428252 0.82509604 0.37813522
0.84560808 0.66624779 0.70543492
0.17299890 0.34130045 0.36814115
0.98910988 0.00555927 0.04111350
0.65316694 0.32282100 0.37126382
0.50733277 0.00525383 0.03219995
0.49668505 0.49089961 0.03055540
0.98675374 0.50014843 0.04603068
0.32326846 0.67483674 0.70601931
0.33853127 0.18162889 0.71205623
0.65838585 0.83540556 0.37933871
0.83403841 0.16619563 0.70817070
0.17471278 0.82380555 0.37418015
0.84890683 0.67198157 0.70266755
0.17213575 0.33679678 0.37444953
0.99319327 0.00821867 0.04535077
0.65491808 0.32969512 0.37387318
0.50514449 0.00883237 0.03614095
0.49929231 0.50158297 0.02489969
0.00384509 0.49710826 0.04682204
0.32703283 0.66790865 0.70727915
0.33326597 0.16702092 0.71748310
0.66896520 0.83951266 0.37992232
0.82849232 0.16708591 0.70770826
0.16882764 0.83061066 0.37799606
0.85426125 0.68540459 0.70896868
0.18254136 0.34218395 0.37678824
0.99456000 0.00381427 0.04639704
0.65994780 0.33603042 0.37276502
0.50383509 0.00849674 0.03777423
0.49305186 0.50637402 0.03117934
0.01676496 0.49915336 0.05166146
0.33312659 0.65845577 0.70880086
0.33099100 0.15433071 0.71327187
0.68406250 0.84494484 0.38015253
0.81649247 0.15550537 0.70127753
0.15890567 0.83506169 0.38150297
0.85453500 0.69115204 0.71883138
0.19331613 0.34769697 0.37253292
0.99218506 0.99534465 0.04173096
0.66803589 0.33892241 0.36917267
0.50492888 0.00661883 0.03834845
0.48529819 0.49238300 0.04034331
0.00816558 0.50347471 0.05095476
0.33348123 0.65352359 0.70985352
0.33930644 0.15845813 0.70375272
0.67954699 0.84431733 0.37535903
0.81368520 0.15183105 0.69523758
0.15551632 0.83139934 0.37514786
0.85084095 0.67567992 0.72372703
0.19085401 0.34276053 0.36691010
0.99354460 0.98930812 0.03888469
0.67285540 0.33873352 0.37047786
0.50894389 0.00893130 0.04242510
0.48105405 0.47514005 0.04489266
0.99010353 0.50834368 0.04430349
0.32827390 0.65688967 0.70910438
0.34429572 0.17244632 0.70314264
0.66404452 0.83451089 0.36895528
0.82082050 0.16467329 0.69422262
0.15704155 0.82853015 0.36321085
0.84201324 0.65551149 0.71996986
0.17088269 0.33270205 0.36659400
0.99805780 0.98730244 0.04083107
0.67605469 0.33997292 0.37655632
0.51289321 0.01076380 0.04504365
0.47958328 0.47550472 0.04234562
0.99761603 0.51611343 0.04457773
0.32818308 0.66388195 0.70728692
0.33481240 0.17490675 0.71332323
0.65772608 0.82814557 0.36820446
0.82471724 0.17044378 0.69931309
0.15289978 0.82993901 0.36090291
0.83797757 0.66104435 0.71224336
0.16230377 0.32495855 0.37742807
0.00452432 0.99100952 0.04269153
0.67702168 0.34069183 0.38041132
0.51370438 0.00750898 0.04513718
0.48069346 0.48922480 0.03809496
0.01869641 0.51960056 0.04759888
0.33366132 0.66873563 0.70729737
0.32272478 0.16499367 0.71754459
0.66267160 0.83653285 0.37458322
0.82051375 0.16366934 0.70338051
0.14813896 0.82645743 0.36681559
0.83619751 0.67382015 0.70902109
0.17689746 0.32544075 0.39191172
0.00422075 0.99641114 0.04378475
0.67600510 0.34097661 0.38052668
0.51255540 0.00488485 0.04844738
0.48461901 0.49956910 0.03583843
0.02493038 0.51529091 0.04273659
0.33666765 0.66710777 0.70530849
0.31914894 0.15643275 0.71335900
0.67141590 0.85047125 0.37868310
0.81678891 0.15307264 0.70387243
0.14804556 0.82869716 0.36773082
0.82955026 0.66584461 0.71419300
0.18723088 0.32983011 0.38914840
0.99877581 0.00048330 0.04677917
0.67664124 0.34362705 0.37860575
0.51419408 0.00518473 0.05249737
0.48309139 0.49293265 0.03564281
0.01369877 0.50809539 0.03145073
0.33795255 0.66111495 0.70272236
0.32590683 0.15866464 0.70773751
0.67567967 0.85462140 0.37630734
0.82237751 0.15214838 0.70088930
0.14801289 0.83213689 0.36609494
0.83002287 0.65566993 0.71501989
0.18629930 0.33856953 0.37764834
0.99932109 0.00507374 0.04629837
0.67587833 0.33969061 0.37867559
0.51155019 0.00456824 0.05273005
0.47764241 0.48000885 0.03604295
0.00556125 0.50517306 0.02492924
0.33964619 0.65993897 0.70464293
0.34318483 0.16925139 0.70604360
0.66722245 0.84689435 0.36994881
0.83051950 0.16267952 0.70033029
0.14876572 0.83033674 0.36946648
0.84150002 0.66390463 0.70997143
0.18366461 0.35078583 0.37288907
0.00341995 0.00543226 0.04067571
0.67346914 0.33073018 0.37942222
0.50433157 0.00362427 0.05065708
0.48014099 0.48315519 0.04064030
0.00646573 0.50403924 0.03226568
0.34136773 0.66641779 0.70806134
0.35262382 0.17334654 0.70756121
0.65681505 0.83339351 0.36533336
0.83195750 0.17090277 0.70793923
0.14932725 0.82834566 0.37678443
0.84909017 0.68193354 0.70582982
0.17834435 0.34973612 0.38223387
0.00566041 0.00056016 0.03432876
0.66958141 0.32738657 0.37857497
0.50300852 0.00707713 0.04711683
0.49192398 0.49980663 0.04490789
0.00535944 0.49895771 0.04287387
0.34394856 0.67228735 0.70463886
0.34987435 0.16571598 0.70498152
0.65381774 0.82388123 0.36605257
0.82633072 0.16585865 0.71161741
0.15429947 0.82888468 0.38226456
0.84407159 0.68415315 0.71016014
0.17616856 0.34126788 0.39008308
0.00612209 0.99641199 0.03391583
0.66511502 0.32696129 0.37410489
0.50748600 0.01036016 0.04381382
0.49846002 0.50770536 0.04753784
0.99554756 0.49403698 0.04020664
0.34608542 0.67466286 0.70087018
0.33910340 0.15686416 0.69894861
0.66095389 0.82496812 0.36815600
0.81996202 0.15951519 0.71009315
0.16399057 0.83210324 0.38321486
0.83118457 0.66898746 0.71846154
0.17057582 0.33493588 0.38337237
0.00461704 0.99650544 0.04060854
0.66534465 0.32689586 0.36995824
0.50945121 0.00851590 0.04580352
0.49560399 0.49942919 0.04692307
0.98614142 0.49024930 0.03053178
0.34129355 0.67003773 0.70290825
0.32655401 0.15684354 0.69606512
0.67122417 0.83333843 0.36900602
0.82574092 0.16158615 0.70938737
0.16909337 0.83641013 0.38115558
0.82664006 0.65208618 0.71719699
0.16070859 0.33622040 0.37386326
0.00239324 0.99711438 0.04370033
0.66786608 0.32915063 0.37235565
0.51056127 0.00536636 0.04761333
0.49492419 0.49462220 0.04358647
0.99156944 0.49235548 0.02874288
0.33325701 0.66392551 0.70678928
0.32154444 0.16351985 0.69694223
0.67092877 0.83635392 0.36918208
0.83587952 0.16996456 0.71355444
0.17009578 0.83927008 0.37975999
0.83418298 0.65457152 0.70894287
0.16103388 0.34464705 0.37489826
0.00206002 0.99697139 0.03848902
0.66769913 0.33053398 0.37590355
0.51000448 0.00028389 0.04265564
0.50223976 0.50150516 0.04115510
0.00027391 0.49702981 0.03550525
0.33360887 0.66894964 0.70846445
0.32134203 0.16991495 0.69898023
0.66766378 0.83266399 0.37131839
0.84010377 0.17563669 0.71770971
0.16718034 0.83930950 0.37962248
0.84280225 0.67253142 0.70453141
0.16684085 0.34630392 0.38462765
0.00139982 0.99859083 0.03564804
0.66948613 0.33246213 0.37262924
0.50429957 0.99434577 0.03698165
0.50844960 0.50876976 0.04119627
0.00026261 0.49745970 0.04435495
0.33735314 0.67571368 0.71027901
0.32572746 0.17163022 0.70147947
0.66512457 0.82815940 0.37343757
0.83636335 0.17173427 0.71533393
0.16507485 0.83474406 0.37792023
0.84170858 0.68183898 0.70465846
0.16119382 0.33254616 0.38753864
0.00190275 0.00195135 0.04043731
0.67048184 0.33515126 0.36805915
0.49507056 0.99255673 0.03661512
0.50681933 0.50821841 0.04177063
0.99793463 0.49604991 0.04399638
0.33767461 0.67470141 0.71364212
0.33290372 0.17008022 0.70592576
0.66739913 0.83129193 0.37445403
0.83338052 0.16431669 0.70901747
0.16880439 0.82798209 0.37551018
0.83153959 0.67285148 0.70483148
0.15565357 0.32260018 0.37537085
0.00339197 0.00391148 0.04773226
0.67092880 0.33737808 0.36809848
0.49001986 0.99628848 0.04010672
0.50132070 0.50243821 0.04361460
0.99727252 0.49680837 0.03810678
0.33497199 0.66920961 0.71461809
0.33570912 0.16930619 0.70913871
0.67504203 0.83716782 0.37571649
0.83987678 0.16501148 0.70569618
0.17167181 0.82583550 0.37752280
0.82496249 0.66077807 0.70593943
0.15863766 0.33142374 0.36303363
0.00485423 0.00495702 0.04754979
0.67284943 0.33954225 0.37283681
0.48903933 0.99696522 0.04149602
0.50133122 0.50051442 0.04452088
0.99735066 0.50156592 0.03871553
0.33209042 0.66368874 0.71168170
0.33834394 0.17044322 0.71073511
0.67369206 0.83263684 0.37394524
0.84587834 0.17015263 0.70841649
0.17229609 0.83185648 0.38005803
0.82304124 0.65919077 0.70793014
0.16362893 0.33801606 0.36527528
0.00640486 0.00416710 0.03890631
0.66915996 0.33722499 0.37712156
0.48722072 0.99501478 0.03870337
0.50653238 0.50274644 0.04346768
0.00109934 0.50440911 0.04543948
0.33374257 0.66443075 0.70830203
0.34164365 0.16839918 0.71143271
0.66767619 0.82583410 0.37104283
0.83975247 0.17096122 0.71098445
0.17182086 0.83640795 0.37848859
0.82187956 0.66772009 0.70723889
0.15746576 0.32678340 0.37664370
0.00664572 0.00414661 0.03629329
0.66494178 0.33253099 0.37875069
0.48772513 0.99685421 0.03413686
0.51029491 0.50624794 0.04217211
0.00438482 0.50069144 0.04777515
0.33793951 0.66871943 0.70742385
0.34081927 0.16531534 0.71070502
0.66659054 0.82676101 0.37458005
0.83159673 0.17261140 0.70737152
0.17433624 0.83385758 0.37531455
0.82098992 0.67317445 0.70505890
0.14903678 0.31703481 0.37787257
0.00378782 0.00446379 0.04224685
0.66522290 0.33038695 0.37892914
0.48990286 0.99884850 0.03363841
0.50681651 0.50479979 0.04181314
0.00170308 0.49657996 0.04245278
0.33760078 0.66625117 0.71060001
0.33792882 0.16623807 0.71121880
0.66807895 0.83457601 0.38102134
0.83376410 0.17409273 0.70435596
0.18166318 0.83316729 0.37300900
0.82166707 0.66441230 0.70533431
0.15003361 0.31642471 0.36715939
0.99866542 0.00248781 0.04659546
0.66658035 0.33251601 0.37815404
0.49080955 0.99739139 0.03887052
0.50382131 0.49710609 0.04019444
0.00064458 0.50023453 0.03813930
0.33201516 0.66160695 0.71106410
0.33267876 0.16708973 0.71288189
0.67099827 0.84047864 0.38189905
0.84583658 0.17473082 0.70601410
0.18325582 0.83870449 0.37262704
0.82710263 0.65325604 0.70543190
0.15975344 0.32652560 0.36106750
0.99070340 0.99866560 0.04358469
0.66853476 0.33883576 0.37955237
0.49343847 0.99552556 0.04155566
0.50764448 0.49553404 0.03912179
0.00206885 0.50697644 0.03932794
0.32680733 0.66098863 0.70478261
0.32909776 0.16683600 0.71336686
0.67138597 0.83905111 0.37706657
0.85042004 0.17219848 0.70884389
0.17764282 0.84642262 0.37149287
0.83204603 0.65281995 0.70352164
0.16922051 0.33658739 0.36742332
0.98943321 0.99809218 0.03937035
0.66419568 0.33902787 0.38135222
0.49583026 0.99390956 0.03847382
0.51096391 0.50236141 0.04074663
0.00178849 0.50709375 0.04218722
0.33136034 0.66810957 0.70308097
0.33182981 0.16733944 0.71144651
0.66574442 0.83663797 0.37481834
0.84209885 0.16812567 0.70718980
0.16980305 0.84310500 0.37243620
0.83438051 0.66309825 0.70075359
0.16958727 0.33265338 0.37786078
0.99456091 0.99932137 0.04231706
0.65890779 0.33322151 0.37940762
0.49836785 0.99542202 0.03585664
0.51210639 0.50746244 0.04156463
0.99822899 0.50099990 0.04526631
0.33630101 0.67554684 0.70778617
0.33480241 0.16944487 0.71077116
0.65846189 0.83709864 0.37838894
0.83638750 0.16539577 0.70380399
0.16709993 0.83091356 0.37235975
0.83626086 0.67331671 0.69986465
0.16424715 0.31873149 0.38096051
0.99680687 0.00010877 0.04706469
0.65921996 0.33332213 0.37485057
0.50350404 0.00092747 0.03881979
0.51230695 0.50614600 0.03984494
0.99670740 0.49941909 0.04636394
0.32794405 0.67078669 0.70914353
0.33496491 0.16916256 0.71242449
0.65892283 0.83736479 0.38279827
0.84073953 0.16480928 0.70426502
0.17083323 0.82886728 0.37184913
0.83612456 0.67002287 0.70325418
0.16919533 0.32057944 0.37342904
0.99326231 0.00066562 0.04468105
0.66139435 0.33772041 0.37008039
0.51010241 0.00637168 0.04490509
0.50997781 0.49948645 0.04014003
0.99923615 0.50319760 0.04371709
0.31663394 0.66044634 0.70758040
0.33335353 0.16304793 0.71019829
0.66687284 0.83206744 0.38190465
0.84788625 0.16701772 0.70692088
0.16967752 0.83738426 0.37756930
0.83679825 0.66303337 0.70419937
0.18098012 0.34398402 0.37155962
0.98781595 0.99891776 0.03719592
0.66475913 0.33972887 0.36764217
0.51468880 0.00487775 0.04538363
0.50732953 0.49765563 0.04175986
0.00205317 0.50199013 0.04274512
0.31853398 0.66016875 0.70656936
0.32921675 0.15580564 0.70741309
0.66774689 0.82634731 0.37877301
0.84797527 0.17054709 0.71181448
0.16115313 0.84410526 0.38142484
0.83917259 0.66618152 0.70193590
0.18195877 0.36160211 0.37925274
0.98977302 0.99737097 0.03387897
0.66437543 0.33609838 0.36865846
0.51406052 0.00262010 0.04174155
0.50392366 0.50283735 0.03997455
0.00259902 0.49296154 0.04460145
0.33126964 0.66920719 0.70870007