f6 zn zr 
1.0
        7.9720001221         0.0000000000         0.0000000000
        0.0000000000        15.9440002441         0.0000000000
        0.0000000000         0.0000000000         7.9720001221
    F   Zn   Zr He
   48    8    8 12008
Direct
     0.254000001         0.000000000         0.000000000
     0.254000001         0.500000000         0.000000000
     0.745999999         0.000000000         0.000000000
     0.745999999         0.500000000         0.000000000
     0.000000000         0.127000000         0.000000000
     0.000000000         0.627000000         0.000000000
     0.000000000         0.373000000         0.000000000
     0.000000000         0.873000000         0.000000000
     0.000000000         0.000000000         0.254000001
     0.000000000         0.500000000         0.254000001
     0.000000000         0.000000000         0.745999999
     0.000000000         0.500000000         0.745999999
     0.254000001         0.250000000         0.500000000
     0.254000001         0.750000000         0.500000000
     0.745999999         0.250000000         0.500000000
     0.745999999         0.750000000         0.500000000
     0.000000000         0.377000000         0.500000000
     0.000000000         0.877000000         0.500000000
     0.000000000         0.123000000         0.500000000
     0.000000000         0.623000000         0.500000000
     0.000000000         0.250000000         0.754000001
     0.000000000         0.750000000         0.754000001
     0.000000000         0.250000000         0.245999999
     0.000000000         0.750000000         0.245999999
     0.754000001         0.000000000         0.500000000
     0.754000001         0.500000000         0.500000000
     0.245999999         0.000000000         0.500000000
     0.245999999         0.500000000         0.500000000
     0.500000000         0.127000000         0.500000000
     0.500000000         0.627000000         0.500000000
     0.500000000         0.373000000         0.500000000
     0.500000000         0.873000000         0.500000000
     0.500000000         0.000000000         0.754000001
     0.500000000         0.500000000         0.754000001
     0.500000000        -0.000000000         0.245999999
     0.500000000         0.500000000         0.245999999
     0.754000001         0.250000000         0.000000000
     0.754000001         0.750000000         0.000000000
     0.245999999         0.250000000         0.000000000
     0.245999999         0.750000000         0.000000000
     0.500000000         0.377000000         0.000000000
     0.500000000         0.877000000         0.000000000
     0.500000000         0.123000000         0.000000000
     0.500000000         0.623000000         0.000000000
     0.500000000         0.250000000         0.254000001
     0.500000000         0.750000000         0.254000001
     0.500000000         0.250000000         0.745999999
     0.500000000         0.750000000         0.745999999
     0.500000000         0.250000000         0.500000000
     0.500000000         0.750000000         0.500000000
     0.500000000         0.000000000         0.000000000
     0.500000000         0.500000000         0.000000000
     0.000000000         0.250000000         0.000000000
     0.000000000         0.750000000         0.000000000
     0.000000000         0.000000000         0.500000000
     0.000000000         0.500000000         0.500000000
     0.000000000         0.000000000         0.000000000
     0.000000000         0.500000000         0.000000000
     0.000000000         0.250000000         0.500000000
     0.000000000         0.750000000         0.500000000
     0.500000000         0.000000000         0.500000000
     0.500000000         0.500000000         0.500000000
     0.500000000         0.250000000         0.000000000
     0.500000000         0.750000000         0.000000000
0.63826591	0.31913295	0.63826591
0.63826591	0.83042446	0.63826591
0.63826591	0.06348717	0.12697434
0.63826591	0.57477874	0.12697434
0.12697434	0.31913295	0.12697434
0.12697434	0.83042446	0.12697434
0.12697434	0.06348717	0.63826591
0.12697434	0.57477874	0.63826591
0.63588457	0.31873282	0.63674168
0.63858518	0.83113318	0.6334797
0.64088731	0.06769665	0.12703852
0.64293351	0.57649082	0.13086197
0.13046288	0.31950754	0.12520154
0.12306629	0.82956804	0.13530265
0.12629424	0.06141429	0.63635417
0.120768	0.57265947	0.63504462
0.63597237	0.31891603	0.63779631
0.63900936	0.83224663	0.62900202
0.64081104	0.06870642	0.12723615
0.64288873	0.57723696	0.13434214
0.1340168	0.31979038	0.12553254
0.11867321	0.82908991	0.13779916
0.12595361	0.06036862	0.63523858
0.11664037	0.57132414	0.63290384
0.63909973	0.31867076	0.63949187
0.64017824	0.83376933	0.62434279
0.63856367	0.06759847	0.12868433
0.63984464	0.57712945	0.13596962
0.13652411	0.32010583	0.12740625
0.11637625	0.82969796	0.1316418
0.12594051	0.06110605	0.63526716
0.11410346	0.57063317	0.63143359
0.64413577	0.31864109	0.6406202
0.64131023	0.83450676	0.62268172
0.6356742	0.06554314	0.12842907
0.636405	0.57646171	0.13544077
0.13699483	0.32094237	0.12914289
0.11536435	0.83166189	0.12293532
0.12547187	0.06267222	0.63581249
0.11472469	0.57077908	0.63185476
0.64772951	0.31840208	0.63965613
0.6433934	0.83422512	0.62409866
0.63363488	0.06556718	0.12693544
0.63499252	0.57590588	0.13115734
0.13542164	0.32329541	0.13024848
0.11496356	0.83462349	0.12102048
0.12467453	0.06394698	0.63807239
0.11711215	0.57164282	0.63253812
0.64762298	0.31803199	0.63481292
0.64586683	0.83295967	0.62785793
0.63224061	0.06878721	0.12619127
0.63621693	0.57607518	0.12349233
0.1323072	0.32712403	0.12958957
0.11657229	0.83800058	0.12636065
0.12339033	0.06503276	0.64217649
0.11929471	0.57275875	0.63208357
0.64493015	0.31883365	0.62680332
0.64590166	0.83053964	0.63621942
0.63036105	0.0723754	0.12734094
0.63753889	0.57690241	0.11642439
0.12926436	0.3302288	0.12660253
0.11877205	0.84065488	0.13268662
0.12132729	0.06541569	0.64766584
0.1213876	0.57453095	0.63211372
0.64257124	0.3199702	0.61764261
0.64378152	0.82890137	0.6455202
0.62868392	0.07435716	0.13086294
0.63612519	0.57890699	0.11367114
0.12851226	0.33096383	0.12368475
0.12182857	0.84192039	0.13453067
0.1206582	0.06556285	0.65382832
0.1205385	0.576288	0.63316923
0.64342726	0.32098095	0.61076362
0.63863244	0.82793137	0.65124656
0.62799094	0.07267622	0.13360629
0.63126802	0.58160052	0.11613737
0.13135534	0.33041733	0.12046551
0.12523339	0.84140284	0.12931733
0.12193298	0.06599917	0.65846309
0.11791592	0.57750437	0.63543355
0.64822286	0.32118346	0.61020818
0.62938934	0.82644101	0.65020087
0.62715638	0.06719067	0.13386495
0.62634918	0.58402019	0.12391672
0.13728366	0.32886426	0.12007189
0.12655723	0.83921979	0.11816835
0.12586551	0.06639062	0.65957739
0.11542812	0.57872682	0.63840907
0.65242802	0.31974221	0.61461193
0.62072918	0.8253096	0.64026704
0.62793994	0.06147786	0.13257648
0.62610612	0.58599602	0.13301175
0.14450905	0.32659786	0.12311419
0.12764833	0.83721935	0.11007544
0.13323171	0.06695739	0.65784574
0.11314484	0.57869244	0.63971522
0.65345791	0.31873859	0.62187987
0.61648065	0.82434258	0.6278857
0.63331673	0.06076728	0.12962012
0.63463569	0.58591467	0.1406992
0.15024218	0.32360837	0.12742186
0.12837327	0.83643947	0.10967822
0.14236428	0.06764031	0.65227223
0.11304237	0.57786005	0.63987923
0.65102856	0.31843426	0.62977215
0.61680392	0.82418538	0.6202232
0.64405181	0.06682026	0.12562048
0.64872447	0.58263899	0.14395732
0.14828048	0.32044082	0.13292641
0.13086918	0.83755689	0.11460171
0.14915994	0.06757411	0.64599126
0.11604598	0.57843597	0.63997259
0.64544044	0.31807063	0.63388867
0.62123411	0.82565484	0.62022783
0.65684105	0.07473832	0.12169124
0.65502518	0.57784824	0.13850191
0.14099018	0.3178391	0.13782766
0.13723689	0.8392808	0.11977161
0.15063033	0.06702805	0.64254389
0.12067034	0.57857896	0.64049585
0.63815653	0.31944407	0.63770071
0.62758609	0.82686948	0.63061732
0.66613296	0.07633651	0.1174328
0.64798242	0.5722915	0.12712761
0.13251547	0.31627714	0.14245226
0.14123854	0.84114498	0.12086963
0.14396112	0.06656944	0.6402966
0.12765549	0.57987464	0.64220928
0.62947668	0.32054105	0.64206105
0.63496286	0.82803882	0.64099402
0.66818707	0.0711003	0.11426305
0.63482696	0.56780178	0.11484779
0.12631554	0.31704657	0.1470583
0.14145197	0.84310623	0.11962701
0.13097953	0.0655946	0.64197512
0.1347168	0.58366434	0.64254238
0.62106278	0.31858742	0.64344556
0.6392053	0.82914485	0.64484487
0.66282451	0.0642094	0.11424472
0.62272859	0.56696018	0.10789573
0.1203847	0.31815692	0.14899061
0.14042921	0.84299154	0.11939159
0.11988852	0.06362797	0.64494985
0.13972923	0.58581599	0.64242669
0.61905744	0.31661014	0.6455312
0.64090425	0.83009577	0.64396213
0.6548618	0.05944646	0.11914493
0.6180156	0.57120408	0.10753258
0.11616265	0.31960093	0.14639703
0.13707194	0.83741227	0.11681416
0.11624325	0.06204607	0.64510292
0.14134288	0.58630564	0.64709292
0.62343695	0.31497497	0.64552933
0.64125963	0.83190973	0.64260575
0.65062188	0.05791565	0.12719321
0.62173955	0.57771035	0.11358322
0.11687292	0.32146348	0.14088852
0.12929281	0.83186353	0.11265812
0.12227713	0.06240836	0.64550434
0.13808351	0.58588462	0.65244628
0.63005911	0.3157607	0.64112247
0.63637017	0.83455267	0.64511379
0.65052469	0.05809422	0.13319851
0.63060074	0.58201148	0.12431398
0.11990607	0.32270602	0.1354907
0.11886195	0.82708138	0.11073351
0.13112865	0.0644445	0.647065
0.13388679	0.58451436	0.65725743
0.63923223	0.31821687	0.63936896
0.63224543	0.83853936	0.64771132
0.6517841	0.05850991	0.13519033
0.64035248	0.58284035	0.1349533
0.12517393	0.32267035	0.13295504
0.10900381	0.82269398	0.11103387
0.1404492	0.06612151	0.64792131
0.13089975	0.58307562	0.66079838
0.64664149	0.31916908	0.64308484
0.63175984	0.84247425	0.64465299
0.65358647	0.05841751	0.13352696
0.64424991	0.58096793	0.14143403
0.13139263	0.32052948	0.13564332
0.10498024	0.82061389	0.11348145
0.14950557	0.06660689	0.64910865
0.12962158	0.58155726	0.65972918
0.65033974	0.31868447	0.64949943
0.63201477	0.84384166	0.63596221
0.65206006	0.0582598	0.1272106
0.64212535	0.57653536	0.14272048
0.13549536	0.31595372	0.14187862
0.10551694	0.820084	0.11814184
0.15506619	0.06712137	0.64702572
0.13249264	0.58022877	0.6541897
0.64955955	0.31767637	0.65540637
0.63319376	0.8425647	0.62344099
0.64736041	0.05930887	0.11944531
0.63890088	0.57310751	0.13917261
0.13569557	0.31276721	0.14988789
0.10931929	0.82259696	0.12369674
0.15687512	0.06931499	0.64044479
0.13719545	0.57951646	0.64707095
0.64503713	0.31635767	0.65616318
0.63518768	0.83895144	0.61634456
0.64237422	0.06268532	0.11331468
0.63856135	0.57171708	0.13262788
0.1337054	0.31266734	0.15549811
0.11543719	0.82815734	0.12988916
0.15641841	0.07066677	0.63399493
0.13946548	0.57900777	0.64106457
0.64116193	0.31668108	0.65241232
0.63565686	0.83414551	0.6160857
0.63784823	0.06658962	0.1105136
0.64109571	0.57174571	0.12740439
0.12773955	0.31516055	0.15632061
0.11783113	0.83406008	0.13386532
0.15128205	0.07042529	0.63059136
0.13761276	0.57882224	0.63845184
0.63992337	0.31924566	0.64724931
0.63562703	0.8295946	0.62020331
0.63557688	0.06771775	0.11232708
0.64392319	0.57231491	0.12496442
0.12232202	0.31856746	0.15167717
0.11944818	0.83902544	0.12909579
0.1418468	0.069745	0.63235726
0.1333394	0.57924034	0.63824943
0.63904411	0.3224082	0.64331305
0.63519679	0.82740115	0.62661305
0.63520999	0.06461389	0.11719751
0.64410904	0.57223078	0.12390681
0.1236	0.32132862	0.14297759
0.12237932	0.84277539	0.12388736
0.12947854	0.06842107	0.63700212
0.12931971	0.58038321	0.63862685
0.63862062	0.32456335	0.64318008
0.63379646	0.82651728	0.63090328
0.63647285	0.05920505	0.12225368
0.64138146	0.57201293	0.12419117
0.1291757	0.32257072	0.13472943
0.12495009	0.8441485	0.12253071
0.11762033	0.06696413	0.6418493
0.12739731	0.58175799	0.63961187
0.63940606	0.32390127	0.64429012
0.63383278	0.8263402	0.62993298
0.63923383	0.05525307	0.12722978
0.63963378	0.57331667	0.12377271
0.13655113	0.3227517	0.1298898
0.12575875	0.84289849	0.12383211
0.11224439	0.06617292	0.64409758
0.12796635	0.58182761	0.64127525
0.64111574	0.32055028	0.64398163
0.63510469	0.82698818	0.62541731
0.64185206	0.05591338	0.13140529
0.63986857	0.5762664	0.12282773
0.14308469	0.32356273	0.12959658
0.12380613	0.83929197	0.12650105
0.11464189	0.06621943	0.64229704
0.13087137	0.58030701	0.64447729
0.6439654	0.31763099	0.64233012
0.63787686	0.82780697	0.62074821
0.64239273	0.06147288	0.13409335
0.64183237	0.57966265	0.12409337
0.14444675	0.32545567	0.13307291
0.12005337	0.83464776	0.12845576
0.12227763	0.06636383	0.63702165
0.1328529	0.57777958	0.64932138
0.64667074	0.31614304	0.6389562
0.6415493	0.82851195	0.61885637
0.64126017	0.06881309	0.1345711
0.64379493	0.58179757	0.12577184
0.14131078	0.32812711	0.13537988
0.11796743	0.83234242	0.12962082
0.13130242	0.06617567	0.63224958
0.13167164	0.57514545	0.65248453
0.64690629	0.31641991	0.63579503
0.64277103	0.82868939	0.62162697
0.63894876	0.07377481	0.13132869
0.64215744	0.58113112	0.12726945
0.13612367	0.33040564	0.13412184
0.11891606	0.8323695	0.13189789
0.13569852	0.06531863	0.62997581
0.12934676	0.57351668	0.65110537
0.64362009	0.31731874	0.63543636
0.6421999	0.82805731	0.62855506
0.63625968	0.07512377	0.12568572
0.63631577	0.57860492	0.1270626
0.13135971	0.33086586	0.13017844
0.12447188	0.83383927	0.13596554
0.13460505	0.06364159	0.62994983
0.12719145	0.57388595	0.64513374
0.63812771	0.31738748	0.63562633
0.63901388	0.82683081	0.63659641
0.63553666	0.07457333	0.11989367
0.62951463	0.57602887	0.12398167
0.12917106	0.32879314	0.12544444
0.13456307	0.83548759	0.14096611
0.13063073	0.06210514	0.63233925
0.12683194	0.57551209	0.63599003
0.63295605	0.31697572	0.63512859
0.63364469	0.82574989	0.64406648
0.63668515	0.07291898	0.11668658
0.62700363	0.57629631	0.12251068
0.12764886	0.32489236	0.12175382
0.14398497	0.83590366	0.14232567
0.12564304	0.0613263	0.63570335
0.12943989	0.57729373	0.62836406
0.6299364	0.31605031	0.63250417
0.62988564	0.82605481	0.65027465
0.63970776	0.07193049	0.11800843
0.63080097	0.57901998	0.12423085
0.12605337	0.32132325	0.1197363
0.14910963	0.83512186	0.13599536
0.12327093	0.06087405	0.63793877
0.13217021	0.57823534	0.6266179
0.63016402	0.31598629	0.62799652
0.62902291	0.82757219	0.65551801
0.64436749	0.07154494	0.12281993
0.64005258	0.58193033	0.12859982
0.12317038	0.31917575	0.11951932
0.14843443	0.83395389	0.12593044
0.1224349	0.0599253	0.63890984
0.13338292	0.57808067	0.62853177
0.63427865	0.31725277	0.62565277
0.6308315	0.82995519	0.65845903
0.64771034	0.06978868	0.12952744
0.65157325	0.5829933	0.13462428
0.11769351	0.31820166	0.12018567
0.1414778	0.83311325	0.11541841
0.12037746	0.05866752	0.63882495
0.13076818	0.57689881	0.6313861
0.63914945	0.31787209	0.62631022
0.63640997	0.83275782	0.65804453
0.64889898	0.0666207	0.13501275
0.66195729	0.58114942	0.13851643
0.11556006	0.31823401	0.12083537
0.13148464	0.83253917	0.10810911
0.11810853	0.05794273	0.63917058
0.1255404	0.57507722	0.6338261
0.64337952	0.31796562	0.63353919
0.64238946	0.83482433	0.65421865
0.64798768	0.06285411	0.13458406
0.66987715	0.57862203	0.13813182
0.11729008	0.31746416	0.12166542
0.12152795	0.83048517	0.10711873
0.11708197	0.05780136	0.63957627
0.12214128	0.57288957	0.63545017
0.64547844	0.3184669	0.64382651
0.64690003	0.83661544	0.64703797
0.64494635	0.05941779	0.13107253
0.67161481	0.57746002	0.135156
0.12000503	0.31453789	0.12307735
0.1138712	0.82560665	0.11224936
0.11755815	0.05841181	0.63949636
0.11971736	0.56980539	0.6375581
0.64365224	0.32043795	0.64907788
0.65021924	0.83816406	0.63857057
0.64026274	0.05798758	0.12785437
0.66391771	0.57811579	0.12988368
0.12419412	0.30983734	0.12372376
0.11255859	0.81943825	0.1218198
0.12158261	0.05917094	0.63880118
0.11872211	0.56550387	0.63961211
0.63878851	0.32528779	0.6494905
0.65209923	0.8393706	0.63360126
0.63346187	0.05916912	0.12455122
0.65077385	0.57946056	0.12453729
0.12477258	0.30404979	0.12124698
0.11410138	0.81417433	0.13050537
0.12875509	0.05937498	0.63773894
0.11873674	0.5623751	0.64242333
0.63255257	0.33106551	0.64565755
0.65165877	0.84033464	0.637137
0.62544689	0.06086673	0.12102888
0.63576965	0.57848309	0.12179675
0.12445643	0.29907383	0.11457391
0.11801429	0.81300614	0.13543919
0.13662531	0.05963816	0.63847394
0.11512519	0.56362176	0.64615267
0.62668638	0.3348698	0.63778857
0.64607892	0.84030786	0.65220757
0.61809636	0.06072298	0.11939614
0.62237058	0.57333057	0.12163151
0.12515273	0.2967518	0.10286632
0.12459766	0.81518832	0.13742315
0.14284163	0.06066732	0.64111551
0.11265255	0.5687876	0.6487154
0.62455457	0.3366879	0.63128529
0.63686753	0.83957554	0.67031439
0.61156411	0.05754553	0.12163784
0.61609543	0.5653315	0.12426489
0.12572121	0.29555206	0.09029849
0.13108755	0.81757485	0.13720313
0.14269175	0.06149823	0.64289005
0.11568975	0.57471845	0.6485652
0.62634873	0.33597135	0.62476217
0.62917693	0.83864341	0.68261397
0.60787848	0.05369282	0.12851232
0.61679573	0.55705045	0.12772314
0.12682838	0.29581245	0.08719565
0.13781499	0.81914481	0.13320889
0.13651163	0.06235213	0.64599183
0.12075223	0.57631478	0.64544576
0.6315377	0.3328766	0.61869701
0.62493657	0.8374653	0.68542725
0.61027232	0.05118264	0.13707519
0.61970474	0.55381715	0.13081614
0.1279887	0.29778796	0.09965958
0.14233125	0.81939406	0.12688427
0.12723393	0.06369195	0.64998302
0.12738714	0.57346804	0.63844318
0.63941771	0.32880243	0.61786637
0.6246663	0.83755473	0.67496262
0.61740274	0.04965427	0.14196412
0.62133443	0.55681253	0.13281192
0.12832391	0.30154929	0.11816781
0.14006625	0.81798484	0.1191019
0.11871393	0.0646037	0.64964951
0.13006096	0.56866971	0.62849924
0.64611175	0.32388974	0.62049504
0.6297024	0.83857585	0.65695905
0.62587075	0.04904953	0.14237631
0.623586	0.56211871	0.13202168
0.12875819	0.30713735	0.13134787
0.13460151	0.81534035	0.11609588
0.1171089	0.06492078	0.63973507
0.12634709	0.56534308	0.61801335
0.64782768	0.31987542	0.62621871
0.64075969	0.83832091	0.64236399
0.63303034	0.04826332	0.13928065
0.62908144	0.5670256	0.13208132
0.12809456	0.31233233	0.12788282
0.12782991	0.81290833	0.12451667
0.11999162	0.06444936	0.62692277
0.12062119	0.56576228	0.6094285
0.64493121	0.31720335	0.63356683
0.65469795	0.83690809	0.64103919
0.63697868	0.04663734	0.13320998
0.63484918	0.56913823	0.13039741
0.12487562	0.31392401	0.11406821
0.12746913	0.8122844	0.13349566
0.12101908	0.06297128	0.6185058
0.11469517	0.56868711	0.6069482
0.63817881	0.31566857	0.64035826
0.66468863	0.83375888	0.65316053
0.63799253	0.04578887	0.1273089
0.63583009	0.56884249	0.12788202
0.12036807	0.31146469	0.09884987
0.13563087	0.81349632	0.13608096
0.12017473	0.06013451	0.61916886
0.11516984	0.57226586	0.6121695
0.63089063	0.31579368	0.64385072
0.66533045	0.82893677	0.66709334
0.63563901	0.04592112	0.1243338
0.63213421	0.56770017	0.12989118
0.11794011	0.30764154	0.08879068
0.1445521	0.8162496	0.13184289
0.11681248	0.05772281	0.62465126
0.12120849	0.57490001	0.62403936
0.62364706	0.31600088	0.64394298
0.6613467	0.82485659	0.67650967
0.63079728	0.04712581	0.12785229
0.6264992	0.56649698	0.13339169
0.1198284	0.30399316	0.08595238
0.15162385	0.81896558	0.12266549
0.11284826	0.0580341	0.63060545
0.12655664	0.57493361	0.63381913
0.61737464	0.31539536	0.64206695
0.65546513	0.82232111	0.67793073
0.62592575	0.04984341	0.13584826
0.62415171	0.56612437	0.13821532
0.12560051	0.30413872	0.09020164
0.15471141	0.82080532	0.11354106
0.11118581	0.06071242	0.63427467
0.12929101	0.57327576	0.63470652
0.61457096	0.31426887	0.64024246
0.64761939	0.82193883	0.67529648
0.62365397	0.05343382	0.14321806
0.62714161	0.566787	0.14260785
0.12809717	0.30617146	0.09923121
0.14837623	0.8226011	0.10932019
0.11131301	0.06306058	0.63297057
0.12521578	0.57062059	0.62817883
0.61578111	0.31255262	0.63831032
0.63951939	0.82363228	0.67375437
0.62490662	0.05745424	0.1479296
0.63301153	0.56747309	0.14100734
0.12532846	0.30783944	0.1095366
0.13739497	0.82410746	0.11176098
0.11242459	0.06364359	0.63082639
0.11778315	0.56813411	0.62077252
0.6207601	0.31142146	0.63764931
0.63239035	0.82583416	0.67426388
0.62926913	0.06126756	0.1502159
0.6401056	0.56826992	0.13713417
0.11881682	0.30914337	0.11956342
0.12719059	0.8249627	0.11865829
0.11273909	0.06109311	0.62986103
0.1139005	0.56743789	0.61788189
0.62718277	0.31258791	0.63823253
0.62963573	0.8273083	0.67457167
0.63295608	0.06430963	0.14874856
0.64626129	0.56984984	0.13415843
0.11149342	0.30957361	0.12793393
0.12049262	0.82504797	0.12703124
0.11158498	0.05578155	0.62923274
0.11552991	0.56881845	0.61871778
0.63175421	0.31503395	0.63871328
0.63109304	0.82606438	0.66980491
0.6346544	0.06672785	0.14428843
0.64932295	0.57259242	0.13287461
0.1086532	0.3102494	0.13089077
0.11958605	0.82473553	0.13508336
0.1102356	0.05008122	0.62990621
0.11978309	0.57055389	0.62082482
0.63296739	0.31873341	0.63936043
0.6331955	0.82358861	0.66046036
0.63400142	0.0680175	0.1384627
0.65116979	0.57631297	0.13513405
0.11076506	0.31221579	0.1276299
0.12206213	0.82454235	0.14251006
0.10929731	0.04681278	0.6314475
0.12570617	0.57065603	0.6226724
0.63090325	0.32245801	0.64035761
0.63533599	0.82337759	0.65078711
0.63038492	0.06783795	0.13261484
0.65166529	0.57882029	0.13726369
0.11508819	0.31442944	0.1196999
0.12559129	0.82481615	0.14803932
0.10965662	0.04821744	0.63149341
0.12898073	0.56952788	0.62277724
0.62685246	0.32471393	0.64175457
0.63743306	0.82533798	0.64470062
0.62818032	0.06694005	0.12930205
0.65049116	0.5788578	0.13815885
0.12045756	0.3157868	0.10812232
0.12871309	0.82558696	0.14891779
0.11332646	0.05259441	0.63041477
0.12758102	0.56725651	0.62330989
0.62452524	0.32482874	0.64291161
0.63879049	0.8289602	0.64613125
0.62815439	0.0657322	0.1289321
0.64883273	0.57723035	0.13905252
0.12390052	0.31582143	0.09852115
0.12929111	0.82627244	0.14510377
0.11978004	0.0571631	0.63053505
0.12427462	0.56377512	0.62631255
0.62513609	0.32228187	0.64294546
0.64012562	0.83319177	0.65118113
0.62831935	0.06510541	0.12994485
0.64621597	0.57527855	0.13802986
0.12664117	0.31400766	0.09250751
0.12813247	0.82615436	0.13742813
0.12613764	0.06044274	0.63069171
0.12119124	0.56215224	0.63203987
0.62852341	0.31871081	0.64272628
0.63995924	0.83566204	0.65364252
0.62910077	0.065488	0.13096933
0.64353182	0.57418288	0.13696942
0.13066826	0.31224712	0.09344442
0.12770707	0.82573954	0.12754995
0.13075917	0.06165847	0.63219232
0.12234248	0.56325583	0.63928244
0.63411745	0.31649527	0.64242224
0.63823661	0.83610367	0.6504748
0.62944187	0.06634017	0.12909104
0.64202659	0.57439722	0.13682982
0.13457213	0.31165795	0.1042401
0.12783608	0.82537887	0.11822843
0.13189498	0.0618666	0.63366752
0.12691257	0.56562745	0.64339046
0.6394473	0.31546384	0.64191744
0.63528066	0.83556688	0.64210827
0.63001141	0.06764112	0.12637846
0.64077833	0.57593644	0.1343119
0.13815252	0.31361748	0.11831627
0.12973323	0.82541619	0.11168633
0.12961621	0.06141191	0.63310357
0.13262709	0.56862849	0.64312651
0.64183497	0.31624865	0.64252311
0.63123198	0.83540888	0.63265528
0.63355672	0.06864652	0.1250993
0.6397954	0.57849887	0.12838693
0.13952949	0.31882131	0.13185468
0.13132976	0.82649461	0.1095402
0.12609096	0.06031409	0.63087306
0.13853402	0.5706806	0.64042331
0.64208631	0.31854966	0.64392116
0.62845932	0.83640175	0.6285446
0.63714895	0.06849972	0.1263023
0.63749402	0.58164123	0.11904402
0.13814155	0.32356832	0.14100385
0.12787109	0.8281218	0.11556002
0.1238078	0.05884799	0.62719643
0.13989647	0.57081995	0.63731099
0.64060124	0.32165457	0.64389259
0.62694115	0.83709122	0.63076209
0.64044387	0.06734016	0.12967253
0.63300751	0.58477536	0.10900863
0.13706606	0.32606594	0.14177442
0.1215272	0.83004705	0.12593883
0.12478196	0.0584569	0.62591213
0.13668933	0.57077457	0.63679191
0.63891595	0.32508623	0.64173592
0.62741524	0.83665592	0.63666589
0.6429833	0.06435403	0.12998112
0.62961841	0.58726811	0.10473246
0.13718945	0.32495555	0.13953423
0.11446428	0.83295771	0.13547023
0.12754425	0.06028298	0.62814783
0.13070963	0.57127649	0.64108591
0.63828334	0.32751524	0.63777492
0.62906452	0.83412996	0.63811801
0.6449828	0.06022103	0.12549881
0.62683113	0.58837618	0.10608871
0.13796284	0.32094855	0.13645021
0.11004261	0.83631457	0.13987119
0.13150396	0.06392835	0.632389
0.12318756	0.57284473	0.64795219
0.63936336	0.32780523	0.63178905
0.63100829	0.82977863	0.62994199
0.65022464	0.05599043	0.117874
0.62621415	0.58754246	0.11200511
0.13836383	0.31751692	0.13310026
0.11309621	0.83884279	0.13643675
0.13569146	0.06806383	0.63909855
0.11846531	0.57571235	0.65471979
0.6426898	0.32551319	0.62690456
0.6326085	0.82703511	0.61821974
0.65827416	0.05272223	0.10903755
0.62910434	0.58396051	0.11967983
0.13667987	0.3165273	0.13422086
0.12059523	0.83980676	0.12775276
0.14091861	0.07134613	0.64422558
0.12109397	0.57975836	0.65943621
0.64756163	0.31969436	0.62642944
0.6326057	0.82619597	0.60876673
0.66524645	0.05257368	0.10211172
0.63306119	0.57885734	0.12162855
0.13332144	0.31872686	0.1378223
0.12615573	0.83901232	0.1202642
0.14933238	0.07236025	0.64166876
0.1266205	0.58541006	0.65985817
0.65205239	0.31239932	0.63046061
0.63181906	0.82572174	0.60686651
0.66920579	0.05534075	0.09982595
0.63624492	0.57461921	0.1205922
0.12774808	0.32506275	0.14341394
0.12535825	0.83796993	0.11649304
0.15764036	0.07228033	0.6352667
0.13261669	0.59195501	0.65877938
0.65686333	0.30775946	0.63588929
0.63393011	0.82434561	0.61239729
0.66981893	0.05943832	0.10940827
0.63804001	0.57222909	0.11893381
0.12070857	0.33197888	0.1517603
0.11572939	0.8371273	0.11620344
0.15912786	0.07273831	0.630401
0.13602812	0.5982541	0.65792674
0.6609012	0.30851356	0.63883446
0.6392048	0.82188633	0.61296447
0.6668031	0.06471222	0.12452429
0.63796037	0.57144599	0.1158045
0.11651998	0.33651357	0.16142728
0.10260318	0.83841971	0.11799214
0.15225023	0.07400511	0.63103121
0.13686932	0.60337067	0.65703423
0.66233129	0.31544939	0.63732157
0.64620473	0.81987306	0.59950193
0.66277086	0.06853373	0.13622479
0.6375757	0.57076389	0.11492546
0.11746485	0.33875367	0.17275694
0.09468947	0.84348073	0.11913002
0.1429973	0.07568336	0.64012568
0.13859723	0.60446795	0.65695901
0.66234897	0.32348388	0.63340305
0.65378483	0.81942861	0.57803887
0.65943969	0.07026359	0.13771624
0.63570228	0.56866733	0.11486987
0.12021773	0.34007653	0.18120579
0.09566262	0.85011593	0.11746237
0.13699954	0.07735375	0.65104995
0.13905491	0.60228569	0.65650621
0.66155652	0.32823599	0.62856867
0.65910781	0.82079721	0.56246668
0.65661851	0.07164107	0.13296314
0.63167643	0.56640111	0.1143371
0.12233405	0.34013325	0.17974797
0.10474678	0.85621946	0.11486457
0.13810241	0.07937702	0.66101302
0.1371806	0.59772951	0.65591769
0.66213082	0.32851231	0.62426058
0.65616137	0.82542416	0.55810043
0.65125921	0.07347863	0.12845622
0.62750943	0.56636019	0.11370489
0.12494558	0.33943779	0.17241703
0.11756519	0.8597204	0.11593567
0.14468072	0.0820891	0.67023466
0.13527103	0.59232016	0.65639961
0.66644632	0.32454696	0.62335503
0.64830466	0.83200165	0.56395586
0.64284138	0.07618821	0.12301176
0.6243308	0.56815965	0.11255268
0.12761167	0.33808219	0.16082447
0.12861448	0.8587857	0.11933423
0.15044122	0.08494614	0.67475869
0.13280825	0.58880901	0.65748218
0.66938966	0.31928972	0.62929361
0.63905223	0.83664061	0.5772362
0.63444236	0.07709358	0.11331082
0.62561154	0.57050935	0.11154959
0.13083672	0.33797156	0.15061704
0.13544737	0.85574897	0.12258808
0.15203203	0.0868737	0.67653446
0.13044605	0.5876819	0.66110438
0.66920506	0.31562372	0.64165592
0.62962215	0.83802152	0.59074965
0.62760961	0.07540665	0.10216713
0.6279446	0.57335418	0.11005768
0.13669349	0.34006251	0.14753166
0.13660722	0.85270117	0.12563269
0.1489448	0.08706857	0.67837853
0.12996504	0.58859361	0.66467477
0.66844266	0.31437835	0.652365
0.62390876	0.83573638	0.59954138
0.62452817	0.07106571	0.09429414
0.62749427	0.57626157	0.10725449
0.14379327	0.34288105	0.15090775
0.13196675	0.85086852	0.1236174
0.14554642	0.08432244	0.67938491
0.13181835	0.59166277	0.66649779
0.66665891	0.31488106	0.65607458
0.62377107	0.83142253	0.60311658
0.62689002	0.06549899	0.09634989
0.62636879	0.57844774	0.10701452
0.14960306	0.34662443	0.15863183
0.12651308	0.8512939	0.1188094
0.14880822	0.08195427	0.67969116
0.13479851	0.59553548	0.66748952
0.66561503	0.31626785	0.65159656
0.6307195	0.8280862	0.60358686
0.63258736	0.06151881	0.10633667
0.62439902	0.58026735	0.10866855
0.15222066	0.34918872	0.16467927
0.12008213	0.85295969	0.11418255
0.15321885	0.08074081	0.67854764
0.13823658	0.59803831	0.66705071
0.6649372	0.31742291	0.63854392
0.64174511	0.82662441	0.60531832
0.63812875	0.06136778	0.1169764
0.62366316	0.58240003	0.11001765
0.14934734	0.34809356	0.1677189
0.11265802	0.85508713	0.11219209
0.15592654	0.08071474	0.67517206
0.14046333	0.59699662	0.66678106
0.6609112	0.31837258	0.6252071
0.64988017	0.82793339	0.61002416
0.6427818	0.06379683	0.12513546
0.62546252	0.58482006	0.11096205
0.14155746	0.34470736	0.16760927
0.10769333	0.85697269	0.11504274
0.15543955	0.0820478	0.67202473
0.13930227	0.59340859	0.66780848
0.65377814	0.31996791	0.61934123
0.65192973	0.83177972	0.61454892
0.64571531	0.06679168	0.12845597
0.62796968	0.58691388	0.11107054
0.13359602	0.34170387	0.16380273
0.10606123	0.85794928	0.12072591
0.15126545	0.08287062	0.66839522
0.1358911	0.59010253	0.66885548
0.64554524	0.32144091	0.62215623
0.65007245	0.8359714	0.6162886
0.64741981	0.06906846	0.12665398
0.63152642	0.58842301	0.11229575
0.12870448	0.34032169	0.1591266
0.10741276	0.85833509	0.12652424
0.14793224	0.08239104	0.66345726
0.13247292	0.58804248	0.66914154
0.64060581	0.32263187	0.63039757
0.64397915	0.83824151	0.61427394
0.64924191	0.06934559	0.12272536
0.63503324	0.58933512	0.11646714
0.12793004	0.34112343	0.15654194
0.11110271	0.85681734	0.13143931
0.14659281	0.08088613	0.65848904
0.1299903	0.58720922	0.66826184
0.64224595	0.32310206	0.63566561
0.63685771	0.83812972	0.61062706
0.65022165	0.06911483	0.1190865
0.63789144	0.58914467	0.12155847
0.12846375	0.34170534	0.15803959
0.11430937	0.85293066	0.1330538
0.14640227	0.07826159	0.65231394
0.12977624	0.58731085	0.66414304
0.6479325	0.32265819	0.63647444
0.63231451	0.83553607	0.6079523
0.64963108	0.0693316	0.11689428
0.64134929	0.58712523	0.12491657
0.12943393	0.33936924	0.16337921
0.1164349	0.84819657	0.13138725
0.14778641	0.07576553	0.64651755
0.13379029	0.58741638	0.65797472
0.65252232	0.32252369	0.6344915
0.62986916	0.83177487	0.60771293
0.64604417	0.07065002	0.1150668
0.64336381	0.58275419	0.12637397
0.13126264	0.33510778	0.16621922
0.11649249	0.84264799	0.12850518
0.14754902	0.07343722	0.64479275
0.139722	0.58732146	0.65109427
0.64995997	0.32302435	0.63127575
0.62994803	0.82845361	0.61074916
0.64108031	0.07281616	0.11323478
0.64297195	0.57713957	0.12686179
0.13211639	0.33007637	0.16305389
0.11433943	0.8381173	0.12557951
0.14369538	0.0719213	0.6468105
0.14157283	0.5865686	0.64526763
0.64008162	0.32375931	0.63070263
0.6317439	0.82635952	0.61624023
0.63839911	0.07350959	0.11285651
0.64184588	0.57217631	0.12730156
0.1309448	0.32683933	0.15602816
0.11197434	0.83611866	0.12430013
0.13768066	0.07125811	0.65009719
0.13873647	0.58561967	0.64355823
0.63007983	0.32410968	0.63240906
0.63329654	0.82654227	0.61949033
0.63863722	0.07278175	0.11442557
0.63891136	0.56950818	0.12825638
0.12849396	0.3259793	0.14824072
0.11012455	0.83547457	0.1252125
0.12954776	0.07004169	0.64955198
0.13214924	0.58468245	0.64431454
0.62520014	0.32290146	0.63438985
0.63533359	0.82806731	0.62114226
0.64298214	0.07095165	0.11864862
0.63860846	0.57035598	0.13018489
0.12400762	0.32481461	0.14223415
0.1110075	0.8348132	0.12528068
0.12570518	0.06840972	0.64481857
0.12280454	0.58258121	0.64440809
0.62767045	0.32055599	0.6359192
0.63703236	0.83027969	0.62507882
0.65086238	0.06844052	0.12429111
0.64327571	0.57464115	0.13266397
0.12097459	0.32251119	0.13725429
0.11933926	0.83258082	0.12462241
0.12831134	0.0658426	0.64102171
0.11752493	0.57937842	0.64200526
0.63468593	0.31768972	0.63675189
0.63770372	0.83377707	0.6322363
0.65727526	0.06667649	0.12762076
0.64816242	0.57835259	0.13115026
0.12037804	0.31918627	0.13109399
0.12874886	0.82924325	0.12432924
0.13098762	0.06185789	0.63820254
0.11826136	0.57527437	0.63687333
0.63883641	0.31487392	0.63944546
0.63712997	0.83773662	0.64197895
0.6588515	0.06644012	0.12879945
0.65200364	0.57845037	0.12578229
0.12022026	0.31532002	0.1243527
0.13510515	0.82536608	0.12579348
0.13152082	0.05786928	0.63600371
0.12072184	0.57018784	0.63041298
0.63800931	0.31441282	0.6437019
0.63478826	0.84043722	0.65096882
0.65449325	0.06620716	0.1277057
0.65340386	0.57462713	0.12056217
0.12120235	0.31184184	0.11616127
0.13919671	0.82041758	0.13005626
0.12673198	0.0537206	0.63277198
0.12329236	0.5650511	0.6246011
0.63342339	0.3153749	0.64688595
0.63371433	0.84050259	0.65593499
0.64543962	0.06376437	0.12432876
0.65038659	0.56973682	0.11771968
0.1221259	0.30841604	0.10989589
0.14071922	0.81521323	0.13372256
0.11863216	0.04970045	0.62678865
0.12449654	0.56052406	0.61987653
0.62562465	0.31699101	0.64853627
0.63566277	0.83573146	0.65682299
0.635463	0.05854724	0.12185806
0.64485333	0.5660623	0.11946322
0.12323616	0.30417656	0.10788068
0.14414553	0.81045652	0.13392438
0.11341917	0.04710108	0.62050359
0.12516123	0.55736264	0.61568368
0.61894825	0.31995699	0.64851012
0.63886197	0.82765433	0.65525411
0.62899374	0.05240254	0.12375988
0.63959253	0.56455089	0.12592967
0.12568446	0.29908557	0.10611661
0.14981557	0.80640397	0.12924725
0.11209073	0.04646924	0.61630526
0.12600965	0.55612531	0.61280745
0.61534703	0.32125392	0.64624974
0.64235205	0.82170366	0.65641315
0.625523	0.0478546	0.1302876
0.63755739	0.56439463	0.13427536
0.12773601	0.29317778	0.10211943
0.15383467	0.80481884	0.12230737
0.11425473	0.04938081	0.61289001
0.12502033	0.5556559	0.61350537
0.61565845	0.32129249	0.6442289
0.64396409	0.8191545	0.6606312
0.62329983	0.04523544	0.13946787
0.64080702	0.56516798	0.14078156
0.12964245	0.2885422	0.09343583
0.15460012	0.80576184	0.11747644
0.11697862	0.05258948	0.61092599
0.12367072	0.55594252	0.61899503
0.62023446	0.3196544	0.64204561
0.64367567	0.82056959	0.66873762
0.6211073	0.04540362	0.14789116
0.64576551	0.565031	0.14321576
0.1317316	0.28650157	0.08197292
0.15058307	0.80772445	0.11774458
0.11515011	0.05275502	0.60596969
0.12142521	0.55591759	0.62383503
0.62740059	0.31527046	0.63925484
0.64372404	0.82393336	0.68103318
0.62013548	0.04876943	0.15457375
0.64703958	0.56358196	0.1435122
0.13159554	0.28677255	0.0730822
0.14372293	0.80912551	0.12211589
0.10896398	0.05167029	0.5950525
0.11735054	0.55378466	0.61985299
0.63597955	0.31077783	0.63839261
0.64486316	0.82614314	0.69235333
0.62125033	0.05297134	0.16009506
0.64295585	0.56203759	0.14409294
0.13113629	0.28866348	0.06978028
0.14025845	0.80881796	0.1281201
0.10115099	0.04833907	0.58353619
0.11576734	0.55228709	0.60982293
0.64276128	0.30911685	0.63790747
0.64829795	0.8276675	0.70008421
0.62442395	0.05657706	0.16333328
0.63484065	0.56061019	0.14511124
0.13094499	0.29075214	0.07114819
0.14000183	0.80639616	0.13310452
0.09359217	0.04423322	0.57590704
0.11709858	0.55214659	0.60035429
0.64690726	0.31112887	0.63774076
0.65415769	0.827948	0.70622361
0.62988125	0.05828908	0.16487633
0.62792725	0.56085025	0.14627868
0.12900045	0.29168007	0.07446198
0.14504136	0.80248448	0.13624295
0.08857529	0.04045775	0.57497271
0.12022357	0.55285307	0.59713248
0.64531168	0.31496601	0.63724284
0.65913912	0.82648866	0.70876845
0.63537613	0.05727207	0.16484184
0.62607042	0.5638864	0.14662194
0.12683802	0.29194485	0.07582146
0.15051538	0.79795779	0.13796034
0.08808348	0.03597211	0.58005066
0.12478475	0.55464658	0.60033608
0.63666718	0.318631	0.63317429
0.66042887	0.82465181	0.70614471
0.63642205	0.05452688	0.1628527
0.62868666	0.56748617	0.14412189
0.12468381	0.29174034	0.07566416
0.15045412	0.79455331	0.13929697
0.090192	0.03161071	0.58834254
0.12721856	0.5557244	0.60413191
0.62582298	0.32140376	0.62795404
0.65567214	0.82194084	0.7002219
0.63119258	0.05115388	0.16175376
0.63665785	0.57064971	0.14243963
0.12234948	0.29120664	0.07579824
0.14597489	0.79412083	0.14030324
0.09285524	0.02760711	0.59994512
0.12430692	0.55522721	0.60332472
0.6167235	0.32187792	0.62363348
0.6463207	0.81991729	0.69265955
0.62283653	0.0497041	0.16061352
0.64502899	0.57192414	0.1414827
0.12005159	0.29085577	0.07607343
0.13976779	0.79649466	0.14087684
0.09302441	0.02470646	0.61443748
0.11863651	0.55426466	0.598799
0.60892949	0.31907814	0.62056299
0.63765597	0.82083139	0.6858331
0.61441912	0.05391575	0.15922492
0.65007437	0.57087381	0.14118986
0.11864115	0.28954513	0.07646121
0.13538449	0.80136304	0.14083416
0.0895025	0.02404893	0.62694875
0.11773264	0.55240771	0.59365207
0.60386446	0.31501246	0.6240276
0.63327668	0.82157615	0.68133212
0.60981679	0.05901721	0.16031164
0.6509669	0.56818313	0.14197802
0.1196995	0.28810606	0.07579357
0.1338756	0.80619299	0.13848091
0.09110161	0.02570918	0.63657416
0.12267154	0.55073105	0.59103933
0.60299042	0.31168308	0.63142577
0.63603995	0.82368597	0.68229496
0.61173048	0.06253718	0.16066758
0.64720788	0.56456643	0.14123194
0.12130155	0.28852185	0.07403799
0.13284432	0.80927496	0.13577891
0.09509206	0.0286909	0.64206054
0.12956884	0.54991803	0.59316406
0.60567132	0.30995574	0.63756132
0.64178705	0.82650736	0.68847972
0.61468211	0.0641019	0.16047726
0.6424653	0.5620662	0.13932528
0.12219518	0.29086158	0.07252332
0.13168029	0.81128126	0.1376818
0.09764751	0.03296814	0.64194156
0.13353202	0.54891005	0.60119521
0.61217872	0.31000921	0.64011173
0.64604708	0.82751765	0.69747129
0.61382141	0.06370729	0.16005674
0.63773262	0.5642948	0.13702052
0.1213064	0.2946455	0.07291702
0.13013377	0.81177613	0.14199683
0.10054553	0.03776361	0.6406965
0.13017395	0.54816916	0.61023657
0.61742211	0.31224217	0.63421218
0.6460569	0.82799888	0.70666332
0.60873916	0.06273352	0.15534879
0.63219139	0.56982999	0.13538803
0.11840633	0.29895148	0.07713992
0.12705826	0.81061698	0.14403961
0.10062212	0.04205281	0.63848809
0.12012211	0.5482277	0.61558093
0.62019646	0.3156285	0.62776741
0.6407664	0.82823301	0.70990796
0.60072029	0.06127535	0.14790707
0.62801493	0.57631215	0.13682777
0.11100809	0.30101835	0.08426018
0.12556066	0.80921134	0.1411751
0.09988254	0.04458088	0.63436256
0.10983429	0.54991985	0.61709012
0.62081326	0.31875357	0.62431833
0.63329954	0.82858615	0.70022789
0.59500612	0.05895528	0.14084363
0.62532144	0.5810393	0.13641889
0.10244111	0.30085275	0.09066131
0.12759706	0.80833254	0.13222538
0.1018613	0.04488862	0.63070262
0.10587897	0.55349659	0.61724476
0.61738496	0.32066087	0.62382818
0.62580652	0.8284593	0.684709
0.59616948	0.05590429	0.13671585
0.62452399	0.58301399	0.13281429
0.0971764	0.29935713	0.09465742
0.13282268	0.80860572	0.12198462
0.10663439	0.04444247	0.62815059
0.11104591	0.55793668	0.6198398
0.61298949	0.32084398	0.62685142
0.62204749	0.82753179	0.66890463
0.60195806	0.05343944	0.13748678
0.62753176	0.58146911	0.1313433
0.0970228	0.29756548	0.09745538
0.14094215	0.80997872	0.11712102
0.11349428	0.04434532	0.62594476
0.12085303	0.56177522	0.62508139
0.60916695	0.32087546	0.63094866
0.62353375	0.82698836	0.65876065
0.61057015	0.05310381	0.14045437
0.63304772	0.57693582	0.12849063
0.10205692	0.29784879	0.09998109
0.14499514	0.81194146	0.11913973
0.11953019	0.04743433	0.62505019
0.13047998	0.56388505	0.62977361
0.60819067	0.32189622	0.63546417
0.6278074	0.82691115	0.65724033
0.61907165	0.05479271	0.14312626
0.63908686	0.57134394	0.12591053
0.10841001	0.30056632	0.10225244
0.14271444	0.81514612	0.12704278
0.12222032	0.05221756	0.62513777
0.13635665	0.56409999	0.63217167
0.61222467	0.32305202	0.64003818
0.63294463	0.8275079	0.65793495
0.62541784	0.05765313	0.14307159
0.64329104	0.5661011	0.12712054
0.11149493	0.30544938	0.10703341
0.13689269	0.81935402	0.13488625
0.12248299	0.05696481	0.62718032
0.13891296	0.5635046	0.63144976
0.61932281	0.3242027	0.64312915
0.63742419	0.82929884	0.65704222
0.63000528	0.05994313	0.13553559
0.64268834	0.56249245	0.12975187
0.11236043	0.31155659	0.11480715
0.13039257	0.82393247	0.13758484
0.12175284	0.06135396	0.63168784
0.13843886	0.56408288	0.63089131
0.62848048	0.32429229	0.64599597
0.64113786	0.83100114	0.65311258
0.63179902	0.0607127	0.12449736
0.63866061	0.56220726	0.13127493
0.11162026	0.3166368	0.12391274
0.12770398	0.82926571	0.13375042
0.12051666	0.06444076	0.63371634
0.13383209	0.56767354	0.63254319
0.63882615	0.32186479	0.6474307
0.64509219	0.83140973	0.64650959
0.63181997	0.06159076	0.11661868
0.63444904	0.56496506	0.13175154
0.11301604	0.32064217	0.13323484
0.1296344	0.83392435	0.12605338
0.11894617	0.06740822	0.63285766
0.1265171	0.57288123	0.6358006
0.64727764	0.31875486	0.64520018
0.64835059	0.83035375	0.64017505
0.63304444	0.06297686	0.11566146
0.6326378	0.56953818	0.13184595
0.11841687	0.32384742	0.13962399
0.13237133	0.83631579	0.11773245
0.11813034	0.07044322	0.63022232
0.1208817	0.57844406	0.64038987
0.6523074	0.31764212	0.64088563
0.64897194	0.82835377	0.63330776
0.63513051	0.06447971	0.12015322
0.63465362	0.57449246	0.13018341
0.12498743	0.32479421	0.13982631
0.13176524	0.83661579	0.11303832
0.11821398	0.07275086	0.62554628
0.12029447	0.58278778	0.64371485
0.65233247	0.31896153	0.6356559
0.64626812	0.82754269	0.62531397
0.63946346	0.06601535	0.12502029
0.63847706	0.57756167	0.12808537
0.13075801	0.32480064	0.13785453
0.12893156	0.83507382	0.11363689
0.12134598	0.07468073	0.62278023
0.12276339	0.58566338	0.64448488
0.64934774	0.32071854	0.63327095
0.64011907	0.82956214	0.6177863
0.64566668	0.06628667	0.12626571
0.6404014	0.57724106	0.1265229
0.13190262	0.32450324	0.13814852
0.12542701	0.83351134	0.11696332
0.12763788	0.07579862	0.62445995
0.12583013	0.58789249	0.64417047
0.64645292	0.32106032	0.6358169
0.63490572	0.83306193	0.60989491
0.64993903	0.06595908	0.1243219
0.63953719	0.57525293	0.12577814
0.1294491	0.32472378	0.14323203
0.12372893	0.83375133	0.12099171
0.13364505	0.07625763	0.63243697
0.12751857	0.58944439	0.64363847
0.64490335	0.3197656	0.64068087
0.63537438	0.8365911	0.60350069
0.65175104	0.06569364	0.12300894
0.63771129	0.57416861	0.12490806
0.1284671	0.32643435	0.15269594
0.12489554	0.83611535	0.12407495
0.13925895	0.07635353	0.64552886
0.12772166	0.59002115	0.64432682
0.64576129	0.31828465	0.64600797
0.64191075	0.83849781	0.60047289
0.65137887	0.0653928	0.12279129
0.6376419	0.57503217	0.12307302
0.13031137	0.32968958	0.16263937
0.12725009	0.83997443	0.12582494
0.14193086	0.07565317	0.65747956
0.12814356	0.59038277	0.64767953
0.64792958	0.31759025	0.64906603
0.65113563	0.83806091	0.59961098
0.6493289	0.06565145	0.12262875
0.63873007	0.57693347	0.12107011
0.13478185	0.33387836	0.1690436
0.12776796	0.84386662	0.12653495
0.14203164	0.07512428	0.66455249
0.13000341	0.590209	0.65204169
0.64956037	0.3194523	0.64814212
0.65429796	0.83652419	0.60192814
0.64786385	0.06621007	0.1220521
0.64014397	0.57876756	0.11901406
0.140248	0.3382576	0.17063088
0.12330621	0.84757299	0.12667175
0.14283961	0.07546502	0.66674148
0.13357972	0.58913945	0.65618073
0.65032421	0.32377505	0.64635074
0.6488116	0.83430573	0.60500399
0.64727868	0.0663312	0.11785566
0.64095556	0.57996303	0.11780933
0.14121472	0.34099207	0.16643317
0.11715095	0.85037029	0.12789052
0.14501856	0.07625045	0.66432387
0.13567083	0.58820265	0.65876499
0.65086506	0.32805413	0.64498713
0.63985655	0.83394896	0.60454163
0.64742418	0.0667414	0.1109649
0.63975163	0.58025915	0.11816154
0.13845205	0.34148714	0.15920652
0.11335219	0.8515023	0.12724895
0.15087781	0.07795414	0.65993211
0.13479549	0.58699119	0.6586186
0.65239941	0.3309774	0.64568619
0.63260523	0.83500225	0.60119455
0.64976815	0.06744583	0.10777683
0.63720231	0.57967909	0.11874365
0.13798495	0.33968304	0.15279722
0.11360988	0.8513018	0.12183963
0.15727496	0.07931836	0.65518574
0.13352392	0.5856764	0.65780358
0.65492006	0.33070395	0.6484816
0.62981512	0.83518356	0.59684965
0.65139425	0.06849883	0.10968066
0.6344941	0.57980952	0.11610164
0.14165556	0.33574895	0.14942371
0.117154	0.84935037	0.11533142
0.16158179	0.07811407	0.65080169
0.13309009	0.58526633	0.65656155
0.65464836	0.32629134	0.6477338
0.63142333	0.8345799	0.59317022
0.65113879	0.07096275	0.11484936
0.63187493	0.58071958	0.11145101
0.14813858	0.33241683	0.14847559
0.120856	0.84573518	0.11115859
0.16378981	0.07462195	0.64968211
0.13451045	0.58567874	0.65567097
0.65070099	0.32062698	0.641505
0.63429567	0.83228943	0.59071194
0.65271947	0.0726881	0.11872803
0.63009795	0.5817084	0.1041875
0.15456443	0.33147305	0.14765554
0.11916572	0.84218148	0.11241332
0.16202468	0.07043991	0.65584993
0.13746848	0.58701645	0.66023763
0.64432575	0.31657148	0.6327479
0.63631655	0.82918686	0.58839863
0.65436118	0.07345052	0.11818447
0.62879093	0.58232975	0.0954999
0.15673022	0.33310256	0.14678699
0.11260999	0.83999578	0.11956994
0.15800244	0.0679505	0.6660548
0.13889752	0.58873244	0.665924
0.63881099	0.31642478	0.6222546
0.63456398	0.82846051	0.58925092
0.65537273	0.07396374	0.113932
0.62953382	0.58239397	0.0929092
0.15329979	0.33618888	0.14879372
0.10708915	0.8411557	0.12708683
0.15609293	0.07046177	0.6762627
0.13795633	0.58991907	0.66726349
0.63910839	0.31826062	0.61354882
0.62841633	0.82976491	0.59441006
0.6575506	0.07261395	0.10773308
0.63288865	0.58283504	0.09773057
0.14507194	0.33922027	0.15545809
0.10494762	0.84563906	0.13220308
0.15790005	0.07581667	0.68105053
0.13496101	0.59034578	0.66591409
0.64633527	0.31904657	0.60762691
0.62121043	0.83124692	0.60001519
0.65846064	0.07059148	0.10270515
0.63548435	0.58349558	0.10659408
0.13771406	0.33999401	0.16346238
0.10782139	0.85114376	0.13505719
0.16659193	0.0805788	0.67603231
0.13131452	0.58896922	0.65972159
0.65923129	0.31711119	0.60373549
0.61727194	0.83179808	0.60689906
0.66011051	0.06866239	0.10235963
0.63882834	0.58403537	0.11416046
0.13708235	0.33969727	0.16763466
0.11452582	0.85405188	0.13551731
0.17465236	0.08367629	0.66525021
0.12702801	0.58650897	0.65153486
0.67302429	0.31328741	0.60342155
0.61747172	0.83034392	0.6136897
0.6645645	0.0669014	0.10313706
0.64441302	0.58488393	0.11750595
0.1460925	0.34011379	0.16506844
0.12196595	0.8515946	0.13597635
0.17538295	0.08345907	0.65534769
0.12504521	0.58669575	0.64622513
0.68224587	0.31080198	0.60583893
0.62198719	0.8272663	0.61712333
0.66981937	0.06833644	0.10202789
0.65088187	0.58549013	0.11750393
0.15875855	0.34006672	0.15674176
0.12691936	0.84663551	0.13668942
0.16751499	0.08261767	0.65128371
0.12747287	0.58813646	0.64466986
0.68553883	0.31129949	0.60968546
0.62671051	0.82393302	0.61858962
0.67590769	0.07015617	0.09990314
0.65772273	0.58369156	0.1139413
0.16622763	0.34072174	0.14839934
0.12258051	0.84284416	0.13748258
0.15309622	0.08147572	0.65387766
0.13191385	0.58807911	0.64912888
0.6822527	0.31310332	0.61668064
0.62773471	0.82133919	0.61727751
0.67849087	0.07102364	0.09788151
0.65838665	0.58019111	0.1077934
0.16041879	0.34187037	0.14451854
0.11396187	0.84076415	0.13759849
0.14113359	0.07805468	0.65640068
0.13584752	0.58739711	0.65577862
0.67451143	0.31419272	0.62429222
0.62869048	0.82106164	0.61399929
0.6746756	0.07119421	0.09922719
0.64701642	0.57743333	0.10368965
0.14819911	0.34096392	0.14530534
0.10843316	0.84073951	0.13580842
0.13661378	0.07336314	0.65624007
0.13621441	0.58541571	0.66159765
0.66623605	0.31276228	0.63060445
0.63195058	0.82251987	0.61469084
0.66603545	0.06783513	0.10604269
0.6298069	0.57603349	0.1035616
0.13779805	0.33849022	0.14800774
0.10873369	0.84173313	0.13210261
0.13775339	0.06858963	0.65349544
0.1328417	0.58286145	0.66694016
0.65943563	0.3097473	0.63425437
0.63608669	0.82376638	0.62160715
0.65427056	0.06469461	0.11740903
0.61307271	0.57686722	0.10732676
0.13587031	0.33624393	0.14774033
0.11380827	0.84173169	0.12900435
0.13884949	0.06562221	0.64832082
0.12771884	0.58149172	0.6690151
0.65481316	0.30714996	0.630067
0.64054755	0.82427084	0.6317551
0.64289107	0.06483904	0.12964617
0.60505767	0.57869832	0.1146916
0.13919196	0.33421613	0.14452544
0.1212306	0.84119643	0.12614949
0.13632194	0.06692461	0.64250712
0.12275862	0.58115132	0.66638995
0.65154481	0.3066371	0.62290238
0.63899764	0.82391766	0.64104029
0.6347848	0.06611385	0.13855776
0.60746939	0.57914328	0.12050348
0.14077939	0.33293631	0.13905459
0.12687567	0.83980861	0.12508383
0.13085251	0.07226519	0.63691601
0.12012967	0.58166634	0.6632153
0.6474961	0.309164	0.61798144
0.63487534	0.82413208	0.64397726
0.62863749	0.06806046	0.1403899
0.61362632	0.57892311	0.12321961
0.13865555	0.33137804	0.13186666
0.131472	0.83797097	0.12574636
0.12543548	0.07817456	0.63024754
0.11981432	0.58099238	0.66129147
0.64328299	0.31381983	0.62190424
0.6346175	0.82511957	0.64097425
0.62435258	0.06971359	0.13618483
0.62185837	0.57760249	0.12567667
0.13452164	0.32974084	0.12567328
0.13465098	0.83642165	0.12685935
0.12261138	0.08094937	0.62681391
0.11796889	0.57839245	0.6590049
0.64086	0.31877072	0.63341485
0.63791877	0.82665627	0.63305561
0.62624154	0.07006041	0.13008298
0.62879598	0.57516749	0.12897396
0.13101754	0.32800497	0.12106645
0.1341156	0.83424286	0.12793213
0.1230251	0.07657279	0.62722271
0.11472761	0.57494177	0.65500932
0.64177276	0.32264175	0.64231469
0.64287615	0.82899691	0.62521249
0.63204609	0.06908106	0.12465453
0.63388941	0.57440515	0.13378416
0.12905451	0.32496175	0.11878868
0.13056584	0.83073809	0.12753475
0.12685878	0.06895185	0.6279136
0.11356819	0.57160622	0.64790769
0.64468015	0.32470803	0.64449919
0.64609517	0.83108172	0.62267731
0.63803789	0.06679957	0.12263236
0.63784505	0.5748872	0.13919939
0.12684042	0.32144533	0.11916248
0.12264066	0.82702507	0.12726393
0.13073392	0.06277552	0.62837476
0.11594101	0.57040688	0.64057626
0.64477235	0.3254129	0.64562521
0.64527372	0.83266202	0.62541338
0.64304976	0.06358292	0.11955699
0.63927558	0.57560533	0.14138292
0.12310763	0.31802525	0.11954693
0.11296289	0.82409129	0.12874116
0.13218575	0.05916526	0.62805777
0.12117655	0.57205447	0.63624923
0.63864149	0.32506265	0.64621152
0.64131019	0.83486443	0.63069446
0.644838	0.06079488	0.11530928
0.63813087	0.57561949	0.1383903
0.11849014	0.31472632	0.11902757
0.10833153	0.82332507	0.13116886
0.13193379	0.0585503	0.62753894
0.12786894	0.57459381	0.63366024
0.62891384	0.32414635	0.64708124
0.63631432	0.83656642	0.63704981
0.64323146	0.05896553	0.11311148
0.63593447	0.57421393	0.13206741
0.11358932	0.31267607	0.11729394
0.11094606	0.82425923	0.13386302
0.13147214	0.05897412	0.62705891
0.13267841	0.57680676	0.63252568
0.61938154	0.32310847	0.64883596
0.63141685	0.83657381	0.64136587
0.63919658	0.05855405	0.11392842
0.63322231	0.5727318	0.12651739
0.10992359	0.31144077	0.11513426
0.1177246	0.8251284	0.1342244
0.13205807	0.05913663	0.6256724
0.13107875	0.57784952	0.63141702
0.61436508	0.32187984	0.64850518
0.62793172	0.83517346	0.64396211
0.63317621	0.05952174	0.11958465
0.63132085	0.5720994	0.1263498
0.10864349	0.30942527	0.1153603
0.12504417	0.82592964	0.13086661
0.13210403	0.05951847	0.62469136
0.12558445	0.57742628	0.6291763
0.61563662	0.32067905	0.64630776
0.62639909	0.83286706	0.64830773
0.62818707	0.06032164	0.12751912
0.63229672	0.57230704	0.13081582
0.10960431	0.30728097	0.1174452
0.13027008	0.82670101	0.1258016
0.12983075	0.05952317	0.62463904
0.12121321	0.57607117	0.62750407
0.62070067	0.32012103	0.64281495
0.62743753	0.83119206	0.65501141
0.6253767	0.06169948	0.13172407
0.63538274	0.57291389	0.13463654
0.11286434	0.30589007	0.1201997
0.1329784	0.82701976	0.12006912
0.12610292	0.05902811	0.62552815
0.12109049	0.5734351	0.6266202
0.6268753	0.32054464	0.64021288
0.63023855	0.83077663	0.66172214
0.6263857	0.06257176	0.13121107
0.64177547	0.57348312	0.13517368
0.11534653	0.30592717	0.12312755
0.1331196	0.82757747	0.1154539
0.1223411	0.05833228	0.62903405
0.12414001	0.5700249	0.62699505
0.63074299	0.3218232	0.63935113
0.63255374	0.83155928	0.66429734
0.63164545	0.06161247	0.12795941
0.64911067	0.57431758	0.1325178
0.11456165	0.30864046	0.12468194
0.13272747	0.82851439	0.11314438
0.12021395	0.05725995	0.63330469
0.1287366	0.56633099	0.62774798
0.63061223	0.32277147	0.63963801
0.63508091	0.83329683	0.66152578
0.63809367	0.06190685	0.12327822
0.6526128	0.5755204	0.13034234
0.11228957	0.31380126	0.12466635
0.13205664	0.82805443	0.11209369
0.12122381	0.05617254	0.63493683
0.1327538	0.56251373	0.62688022
0.62914649	0.32241263	0.64161917
0.63687779	0.83492838	0.65674679
0.64255933	0.06293078	0.12116889
0.65264205	0.57703884	0.13199466
0.11175797	0.31918788	0.12301093
0.12907125	0.82554064	0.11453917
0.12300478	0.05523599	0.63408867
0.13554278	0.56010531	0.62591002
0.62667646	0.32060454	0.64402936
0.6378752	0.83536356	0.65367795
0.64250543	0.06382924	0.12303566
0.64904204	0.57874618	0.13677969
0.11607657	0.32184207	0.1193358
0.12341211	0.82060154	0.1214316
0.12136285	0.05494866	0.63073251
0.13794695	0.55988374	0.6256755
0.6241679	0.31819806	0.64585062
0.64105108	0.83505394	0.6564789
0.63622772	0.06380455	0.12917389
0.64431593	0.57961138	0.14022552
0.12295363	0.32005976	0.11431213
0.11599843	0.81478027	0.13034635
0.11435021	0.05572936	0.62622467
0.1395506	0.56147622	0.62533636
0.62329462	0.31584795	0.64733339
0.64451932	0.83374525	0.66503748
0.62711354	0.06325166	0.13886557
0.64090058	0.57884225	0.1378894
0.12886032	0.31584758	0.10740009
0.11021064	0.81169751	0.13895196
0.10461291	0.05744399	0.62355619
0.13938482	0.56484615	0.62612449
0.62467194	0.31425237	0.64716702
0.6466352	0.83179073	0.672971
0.62039983	0.06285474	0.14849638
0.63516349	0.57625535	0.13117607
0.13285899	0.3115465	0.1003367
0.11143523	0.8132717	0.14154102
0.09712124	0.05983645	0.62415466
0.1350754	0.56629015	0.62705573
0.62981185	0.31325517	0.64410264
0.64666756	0.82959946	0.67472534
0.61972056	0.06124742	0.15528657
0.62872495	0.57277813	0.12500519
0.13568037	0.30757138	0.09741977
0.12072476	0.81978494	0.13808799
0.09534098	0.0611342	0.62949743
0.12516207	0.56549412	0.62649411
0.63717428	0.31284828	0.63912485
0.64545296	0.82674122	0.66781674
0.62391637	0.05952614	0.1608002
0.62382696	0.57053468	0.12412669
0.1396369	0.30655602	0.10086509
0.134594	0.82688928	0.1307743
0.09935628	0.06128912	0.63838853
0.11344674	0.56465725	0.62439255
0.64383874	0.31372391	0.63083969
0.64610948	0.82348266	0.65830662
0.63174918	0.05930672	0.16255912
0.62084466	0.56976309	0.12966033
0.14519847	0.30711811	0.10705599
0.14716138	0.83140767	0.12233481
0.10942043	0.06042981	0.64693856
0.10508907	0.56440997	0.6210678
0.65108969	0.31534955	0.62094458
0.64990344	0.82181764	0.65203456
0.64031934	0.05950717	0.16172304
0.62374798	0.56929337	0.13968415
0.14977971	0.30705379	0.10998534
0.1554478	0.83184737	0.11895716
0.12144527	0.05721314	0.6539923
0.10306719	0.56619133	0.61961172
0.6557295	0.31730056	0.61446677
0.6551609	0.82078825	0.6487283
0.64657419	0.06087806	0.15966397
0.63288254	0.56908872	0.14772075
0.15157524	0.30665759	0.10810717
0.15827127	0.82949095	0.1212919
0.13301838	0.05323221	0.6568263
0.1106584	0.56963144	0.62019827
0.65282348	0.31867587	0.61742658
0.6593843	0.82005323	0.64619646
0.64927284	0.06331811	0.15438608
0.64535155	0.56953381	0.14915567
0.14788587	0.30588447	0.10243226
0.15491992	0.82627089	0.12673457
0.14396491	0.05000523	0.65505692
0.12238873	0.57291547	0.62162951
0.64481326	0.31951326	0.62846787
0.66317994	0.81987229	0.64305445
0.64948339	0.06551021	0.14868979
0.65810903	0.57019354	0.14241711
0.13916442	0.30702157	0.09454712
0.14976106	0.82322748	0.13307685
0.15204958	0.04986097	0.6510064
0.13246897	0.57462861	0.62394159
0.63400125	0.31977952	0.64047424
0.66487838	0.82068592	0.63845193
0.64939774	0.06684338	0.14533271
0.66674865	0.57071466	0.12902293
0.13144413	0.30975031	0.09289833
0.14597492	0.82006255	0.13655024
0.15415912	0.05347305	0.64309721
0.13601332	0.57365073	0.62548956
0.63012012	0.31785293	0.64624247
0.66233161	0.82221982	0.63171667
0.64581272	0.06539364	0.14332102
0.66965738	0.57123816	0.11822445
0.12686576	0.30979145	0.10087449
0.14353034	0.81757933	0.13680147
0.14718272	0.05907578	0.63278112
0.13080373	0.57148775	0.62623912
0.63148208	0.31385747	0.64564828
0.65566419	0.82173774	0.62498044
0.63942482	0.06075746	0.14224677
0.66639635	0.57075202	0.11716314
0.1284511	0.30895763	0.11167031
0.14024856	0.81536671	0.13481212
0.13344371	0.06452042	0.62552082
0.11927363	0.57082173	0.62731386
0.63296967	0.30945135	0.64283829
0.64768368	0.82022978	0.62087989
0.63414234	0.05481961	0.14225556
0.65691573	0.56894931	0.12149134
0.13711439	0.30844198	0.12196276
0.13619084	0.81449085	0.13069406
0.11817245	0.06871857	0.61985378
0.10969233	0.57217164	0.6303986
0.63458784	0.30602484	0.64364715
0.64221547	0.82016914	0.62004085
0.63268249	0.04920861	0.1434551
0.64665871	0.56673248	0.12411496
0.14599217	0.30817009	0.12733287
0.13313585	0.81624557	0.12679455
0.10760573	0.07041329	0.6170676
0.10705104	0.57473061	0.63797634
0.63625241	0.30664529	0.64617737
0.64037115	0.82178672	0.62345625
0.63502521	0.04608349	0.14518768
0.64039722	0.56427858	0.12157009
0.14881572	0.30916905	0.12864176
0.13572815	0.81945246	0.1265389
0.10470265	0.07040246	0.61843946
0.11233317	0.57626861	0.64698934
0.63930369	0.31105693	0.65106052
0.64053558	0.82544961	0.63106355
0.63903835	0.0467989	0.14578554
0.64199571	0.56375959	0.1169213
0.14398964	0.31138558	0.1293075
0.14695479	0.82342914	0.13035821
0.10740209	0.06827166	0.62320113
0.1217788	0.57506038	0.65418957
0.64506908	0.31551571	0.65341826
0.64127661	0.82913134	0.64073518
0.64395402	0.04888057	0.1435627
0.64960741	0.56459236	0.11359194
0.13613985	0.3143561	0.12999284
0.15899965	0.82686928	0.13452936
0.11384322	0.06377318	0.63208722
0.13244703	0.57373144	0.65868885
0.64933774	0.3183354	0.65156297
0.63941058	0.83031529	0.64677029
0.6480511	0.05212299	0.13906034
0.65851166	0.56549078	0.11511006
0.13064766	0.31677007	0.13350356
0.16348509	0.82790903	0.135337
0.11829523	0.05921435	0.64136139
0.14319245	0.57238082	0.65785112
0.64771027	0.31775021	0.64943935
0.63745636	0.82997827	0.64580148
0.64802035	0.0566105	0.1338876
0.66624671	0.5669154	0.11929454
0.12702616	0.31711096	0.13692531
0.15732925	0.82772014	0.13256079
0.120747	0.05516682	0.64856336
0.15232308	0.57127373	0.65252181
0.64296098	0.31586309	0.64698731
0.63968328	0.82914321	0.64217402
0.64394668	0.06039218	0.12868307
0.67025916	0.56761571	0.12312997
0.12369296	0.31599132	0.13802628
0.14461282	0.82738621	0.12872908
0.12181683	0.05320804	0.65277532
0.15921782	0.57056578	0.64703264
0.63525424	0.31598361	0.64442125
0.64518255	0.82839272	0.63943522
0.63807032	0.06172369	0.12424124
0.66987604	0.56657741	0.12471489
0.12021697	0.31457828	0.13892835
0.13190535	0.82725041	0.12596111
0.1211917	0.05407116	0.65418431
0.1627349	0.56888506	0.6443484
0.63077528	0.31774373	0.64203966
0.6516124	0.82906094	0.63782055
0.63177967	0.05972934	0.12273302
0.66626037	0.56482552	0.12536587
0.1179786	0.31338133	0.14000497
0.12326101	0.82810699	0.12551667
0.11988515	0.05635394	0.65551743
0.16234656	0.56712957	0.64404603
0.63229384	0.31974487	0.63836081
0.6555367	0.83015453	0.63885765
0.62710014	0.0567849	0.12396956
0.65813041	0.56298236	0.12682037
0.12035012	0.3128193	0.142653
0.12176974	0.82828239	0.12610179
0.11705815	0.05935307	0.65664412
0.15749455	0.56621092	0.64400838
0.63895376	0.32062335	0.63368253
0.65500949	0.83095325	0.6396405
0.62536374	0.05472818	0.1263772
0.64774664	0.56336517	0.12856814
0.12774948	0.31281597	0.14613267
0.12554998	0.82716459	0.12516568
0.11389855	0.06195166	0.65779803
0.14880293	0.56662772	0.64250442
0.64726017	0.31929952	0.63002588
0.65222578	0.8314425	0.63833527
0.62542483	0.05401331	0.129259
0.63883263	0.56676122	0.12992304
0.13691554	0.3127638	0.14667229
0.13103485	0.82548509	0.12357478
0.11330669	0.0632637	0.659862
0.13892712	0.56908722	0.64084245
0.65058201	0.31723668	0.62829221
0.64896876	0.83121194	0.63560515
0.62465675	0.0555678	0.13254818
0.63474144	0.57155536	0.13096352
0.14334271	0.31319145	0.14404543
0.13681647	0.82390192	0.12318842
0.1155343	0.06429988	0.66009279
0.13123279	0.57312851	0.64080662
0.64821044	0.31610281	0.6293224
0.64748931	0.83105943	0.6331804
0.62263062	0.0589199	0.1348752
0.63642381	0.57631466	0.1302228
0.1445893	0.31451206	0.13810746
0.14063864	0.82388105	0.12493056
0.11971738	0.06460528	0.65932581
0.12690361	0.57761208	0.6415647
0.64273419	0.31651449	0.63167893
0.64926065	0.83144694	0.63335001
0.6204669	0.06243389	0.13459294
0.64056038	0.57919026	0.12752766
0.14060291	0.31640241	0.13017634
0.14102139	0.82570723	0.12710964
0.12650566	0.06365518	0.65848633
0.12611943	0.58064951	0.64249943
0.6365739	0.31894863	0.63381165
0.65000687	0.83209763	0.63300305
0.61964686	0.06648743	0.13111792
0.64529093	0.57944708	0.12442289
0.13204169	0.31911431	0.12502967
0.14060318	0.82817045	0.12829671
0.13420018	0.06305937	0.65633616
0.1288777	0.58046436	0.64131472
0.63308527	0.32114644	0.63537923
0.64788724	0.83285445	0.62974582
0.62153283	0.07042733	0.12526062
0.64914412	0.57936849	0.12282417
0.12280457	0.32170462	0.1238842
0.14002004	0.83073118	0.12683558
0.14070484	0.0627839	0.65340587
0.13168043	0.57788399	0.63659982
0.63266962	0.32193536	0.63612872
0.64386251	0.83217254	0.62590602
0.62373902	0.07346124	0.11964294
0.64929725	0.58062675	0.12360845
0.11869235	0.32280765	0.12779894
0.13685614	0.83251985	0.12157067
0.14428186	0.06346997	0.64804892
0.13174186	0.57454161	0.63023086
0.63496503	0.32149357	0.63859847
0.63963836	0.8299681	0.62219416
0.62611947	0.075442	0.11681306
0.64615219	0.5830617	0.12676908
0.12025439	0.32353462	0.13437621
0.13036063	0.83390701	0.11644198
0.14368152	0.06559706	0.64088969
0.12797373	0.57238537	0.62483035
0.64001839	0.3196853	0.64373497
0.63999258	0.82837929	0.62074563
0.62893557	0.07484613	0.11512858
0.64098992	0.5845981	0.13010083
0.12401713	0.32462912	0.13726003
0.12023686	0.83667209	0.11579225
0.13808711	0.06837439	0.63355194
0.12221076	0.57302233	0.62357758
0.64471378	0.318024	0.64649355
0.6432093	0.82779485	0.62385777
0.6318245	0.07149576	0.11381352
0.63179319	0.58449943	0.13050912
0.12778078	0.32690358	0.13453532
0.10936342	0.84056296	0.1200027
0.13000329	0.07135197	0.62514049
0.11788431	0.57670599	0.62666227
0.64460878	0.31695413	0.6440451
0.64242143	0.82960837	0.62775133
0.63653104	0.06665045	0.11193687
0.62054911	0.58350094	0.1282825
0.12968042	0.33023555	0.12756969
0.09910894	0.8455774	0.1294858
0.12191127	0.07295065	0.61750232
0.11575632	0.5811979	0.6315843
0.64000588	0.31586223	0.6384254
0.63608903	0.83323975	0.62937184
0.64262858	0.06165774	0.10858792
0.61077813	0.58293422	0.12538742
0.12757883	0.3332679	0.12043377
0.0915928	0.85048581	0.13733766
0.11866245	0.0706007	0.61219709
0.11347145	0.58386628	0.63673562
0.63312041	0.31510117	0.63302921
0.62342896	0.83587931	0.62796135
0.64827976	0.05839872	0.10516303
0.60367969	0.58411153	0.12260226
0.1218592	0.33558202	0.11861488
0.09126301	0.85262574	0.13979717
0.12566931	0.06641221	0.60982093
0.11062078	0.58380559	0.64095509
0.62727942	0.31541732	0.63406378
0.60910332	0.83665571	0.62269284
0.65190665	0.0584333	0.10044263
0.60086115	0.5871513	0.11941787
0.11530051	0.33646219	0.1192517
0.09601065	0.85144307	0.13230578
0.13789516	0.06237548	0.61399997
0.10828301	0.58287203	0.64256477
0.62419084	0.31706581	0.64072624
0.60260928	0.83543177	0.61676618
0.65352042	0.06194004	0.09641767
0.60201915	0.59130729	0.11872955
0.10958445	0.33629804	0.11991907
0.10247285	0.84807736	0.11574344
0.15041757	0.0601041	0.62027081
0.10770737	0.58256249	0.64165041
0.6243944	0.32062169	0.64635543
0.60187658	0.83411566	0.61387602
0.6547976	0.06789688	0.09520166
0.60581681	0.59314171	0.11961347
0.1057687	0.33635764	0.11912468
0.10915771	0.84513482	0.09923555
0.15274478	0.06032763	0.62410212
0.10776673	0.58351003	0.63953082
0.63297786	0.32612767	0.64795475
0.60736157	0.8348852	0.6175183
0.65801532	0.07391869	0.09603644
0.61147485	0.58942185	0.12139269
0.10284252	0.33683451	0.11619922
0.10915712	0.84453365	0.09186995
0.14465226	0.06280021	0.62372757
0.1065525	0.58577047	0.63833318
0.6431295	0.33202345	0.64553375
0.61313064	0.83769488	0.6261481
0.66259757	0.07879913	0.10210035
0.61693599	0.58152949	0.12373827
0.10170871	0.33673275	0.11658972
0.10151879	0.84490673	0.09947787
0.13862657	0.06739647	0.61867645
0.10431917	0.58879999	0.63990952
0.64872365	0.33588963	0.64226531
0.61536117	0.8415693	0.6337623
0.66918037	0.07981013	0.1097043
0.61964242	0.57559893	0.12461765
0.10252675	0.33559919	0.12135688
0.09454063	0.8453267	0.11558784
0.13669201	0.07255701	0.61505443
0.10162784	0.59203692	0.64551027
0.65014668	0.33577064	0.64040682
0.61426312	0.84409158	0.63614453
0.67501447	0.07591703	0.11355341
0.61775444	0.57430944	0.12734728
0.10630884	0.33309784	0.12613359
0.08943009	0.84634873	0.13022692
0.13842403	0.07582776	0.61450494
0.09686055	0.59362817	0.65008156
0.64614574	0.3339406	0.63721984
0.61051683	0.8446931	0.63855061
0.67806237	0.07027363	0.11255346
0.61032241	0.57673228	0.13355299
0.11402783	0.33030879	0.12980201
0.08647421	0.84757938	0.13985518
0.14266958	0.0770704	0.61540555
0.0920392	0.59269792	0.65185106
0.63814594	0.33164364	0.63360143
0.60683883	0.84493899	0.64475362
0.67907653	0.06596621	0.10839889
0.6028354	0.58030792	0.13986031
0.11907312	0.32850184	0.13039384
0.08689226	0.8491135	0.14325746
0.1463391	0.07664476	0.61449619
0.0926142	0.5903914	0.65255883
0.63205234	0.32984624	0.63097095
0.604358	0.84481882	0.65393669
0.67783837	0.06421328	0.10403863
0.5980313	0.5814723	0.14472009
0.11850223	0.32758258	0.12562734
0.08946064	0.85021185	0.14145358
0.15042836	0.07495581	0.60932422
0.09864479	0.58818464	0.6537621
0.62945204	0.32891721	0.63061415
0.60204722	0.84554244	0.66204983
0.67096876	0.06413134	0.10052359
0.59961185	0.57948047	0.14378088
0.11734408	0.3268009	0.12014262
0.09325732	0.84980544	0.13868863
0.15785585	0.07385793	0.60289222
0.11024217	0.58717633	0.65648077
0.63364283	0.3285232	0.63409069
0.60307575	0.8464819	0.66527021
0.66160125	0.06454132	0.09991344
0.60828428	0.57674974	0.1372283
0.11923945	0.32659455	0.11608443
0.09580097	0.84694584	0.13475389
0.16477948	0.07413795	0.60168096
0.12267695	0.58716175	0.65810874
0.64311415	0.32860259	0.63770466
0.6064422	0.84579372	0.66257337
0.65253264	0.06532392	0.10215558
0.61696607	0.57510744	0.1298009
0.1258902	0.3270616	0.11632087
0.09741159	0.84059153	0.12942278
0.16884196	0.07607542	0.60468505
0.12962888	0.58626074	0.65549044
0.65122145	0.32833079	0.63998024
0.61064995	0.84323989	0.6554211
0.64642435	0.06647514	0.10637767
0.62020629	0.57595346	0.12440901
0.13757985	0.32790574	0.1210005
0.09998019	0.83325654	0.1247877
0.16966616	0.07831779	0.60892393
0.12795686	0.58412948	0.64844957
0.65645087	0.3273007	0.63999168
0.61578193	0.83912329	0.646189
0.64315166	0.06872966	0.11050195
0.61898371	0.57847056	0.12377509
0.14833905	0.32914324	0.12563984
0.10224991	0.82740022	0.1231552
0.16656229	0.07792474	0.61299388
0.12044415	0.58246086	0.6402464
0.65856399	0.32559844	0.63511099
0.61944157	0.83485073	0.63979816
0.64073455	0.07231345	0.11491094
0.61856101	0.58114826	0.13061955
0.15325173	0.32977027	0.1280593
0.10258496	0.82566215	0.12674403
0.16123812	0.07575511	0.61517209
0.11004245	0.58122076	0.63442178
0.65791909	0.32453695	0.62825432
0.62188599	0.83191108	0.64132142
0.63958409	0.07437327	0.11986544
0.62151213	0.58315161	0.13919093
0.15190265	0.32889917	0.12793261
0.10073413	0.82846139	0.13242273
0.15592182	0.07347812	0.61543847
0.10076498	0.58048135	0.63161893
0.6556357	0.32449148	0.62319864
0.62363075	0.83081152	0.6465088
0.64044106	0.07360855	0.12366249
0.6261312	0.58419274	0.14414612
0.14359599	0.32641489	0.12407543
0.09725212	0.83350911	0.13743013
0.15134399	0.07158112	0.6150965
0.09584181	0.58112107	0.63031922
0.65047782	0.3241201	0.6223905
0.62402375	0.83158726	0.65127279
0.64362151	0.07141839	0.12452695
0.62955307	0.58428971	0.14184906
0.13396689	0.32359148	0.11853167
0.09382573	0.83849112	0.14019251
0.14842166	0.07023808	0.61458816
0.09723135	0.58156169	0.62995677
0.6437345	0.32305187	0.62826956
0.62299063	0.83350125	0.65170073
0.64907608	0.06908378	0.12215347
0.63031891	0.58387784	0.1343095
0.12827379	0.32264787	0.1120215
0.09115934	0.84169391	0.14075213
0.14641465	0.06861569	0.61541273
0.10486327	0.58075661	0.6298074
0.63908869	0.3214702	0.63518942
0.62096055	0.83515915	0.64570588
0.65465915	0.0682415	0.11778521
0.62879043	0.58346429	0.12737236
0.1270185	0.32354109	0.10607932
0.09054005	0.84143374	0.13895729
0.1451687	0.0660129	0.6178575
0.1139804	0.57872311	0.62965436
0.63660501	0.31969333	0.6385427
0.61907879	0.83579058	0.63870762
0.65726012	0.07014463	0.11289075
0.62592196	0.5828767	0.12430388
0.12839455	0.32469879	0.10326589
0.09378393	0.8385873	0.1336431
0.14446514	0.06374738	0.6205719
0.12055754	0.57549506	0.63137978
0.63739705	0.31872347	0.64003409
0.61824297	0.83479661	0.63456137
0.65606339	0.07266672	0.10999554
0.62268988	0.58142684	0.12637212
0.12940143	0.32541853	0.10242857
0.09960074	0.83459191	0.12592416
0.14253503	0.06247619	0.62320528
0.12228814	0.57243232	0.63521217
0.64176301	0.31911771	0.64000424
0.61844086	0.83285796	0.63495604
0.6510002	0.07318101	0.11144151
0.61935249	0.57874351	0.13236238
0.12838531	0.32486855	0.10513538
0.10561461	0.83179173	0.11800241
0.13785852	0.0622513	0.62669536
0.11954024	0.57030664	0.63959885
0.64769687	0.3205001	0.63912453
0.62016413	0.83082682	0.63630258
0.6440173	0.07079189	0.11911766
0.61552022	0.57648182	0.1354526
0.12522666	0.32294818	0.11125965
0.11191366	0.83133634	0.11115171
0.13049086	0.06212395	0.6320208
0.11495838	0.56922274	0.64148549
0.65284202	0.32199282	0.63984456
0.62484726	0.82854332	0.63535768
0.63890026	0.0674538	0.12877126
0.61261871	0.5761663	0.13469472
0.12156147	0.32052414	0.11827452
0.11851171	0.8324638	0.10761208
0.12096292	0.06032831	0.63946756
0.11207234	0.5689144	0.63893311
0.65274902	0.32183026	0.6391361
0.63211037	0.82670467	0.63490454
0.63704795	0.06515304	0.1358362
0.61348714	0.57836432	0.13342644
0.12042671	0.31756424	0.12672667
0.12534177	0.83347537	0.10748251
0.11362285	0.05700232	0.64618608
0.11268819	0.56819544	0.63457903
0.64618892	0.31916955	0.63535385
0.64054027	0.82531129	0.63648037
0.63781304	0.06459686	0.13874775
0.61913568	0.58175129	0.13318473
0.12211312	0.31469336	0.13388544
0.13193973	0.83250323	0.11020815
0.10962619	0.05323736	0.64945227
0.11807977	0.56725872	0.6320695
0.63718103	0.31614368	0.63087045
0.64794772	0.82387349	0.64014542
0.63985623	0.0650515	0.13812405
0.62926252	0.58197602	0.13475335
0.12392492	0.31332255	0.13707727
0.13638682	0.8290519	0.1176981
0.10707866	0.05082233	0.64937181
0.12573484	0.56741926	0.63316974
0.62979145	0.31395141	0.62722912
0.65287116	0.82393685	0.64593742
0.63990902	0.06450647	0.13716455
0.64313861	0.57912461	0.13550639
0.12409797	0.31309414	0.13683646
0.13960183	0.82517989	0.12980558
0.1073015	0.05119114	0.64744692
0.1328605	0.56857302	0.63866663
0.62645775	0.31398828	0.62748157
0.65463076	0.82638339	0.64857746
0.63747167	0.06165202	0.13860945
0.65579083	0.57378058	0.13125777
0.12274573	0.31392225	0.13277484
0.14131248	0.82191804	0.14290848
0.10814353	0.05360366	0.64908623
0.14048288	0.57051606	0.64341072
0.62644616	0.31644294	0.63238218
0.65501016	0.8303542	0.64570872
0.63189412	0.05712362	0.14175029
0.6618091	0.56645414	0.12169069
0.12052997	0.3143656	0.12764172
0.1422087	0.81909407	0.14981307
0.10933988	0.05666141	0.65628367
0.14912634	0.57277376	0.64485632
0.62526715	0.31841762	0.63983745
0.65635222	0.83456491	0.63886645
0.6234987	0.05319021	0.14444362
0.6599352	0.56118916	0.10864771
0.1195056	0.31209083	0.12774499
0.14819658	0.816527	0.14726736
0.11142644	0.05935522	0.6606996
0.15649867	0.57379858	0.64433809
0.6235702	0.31925939	0.64724426
0.65997627	0.83646675	0.6285599
0.61680461	0.0518662	0.14311486
0.65468299	0.55971661	0.09872864
0.12118496	0.30773913	0.13408634
0.15568927	0.81407863	0.13405492
0.11220459	0.06138659	0.65864549
0.16011462	0.57326957	0.63992115
0.62318132	0.3183951	0.6494072
0.66577348	0.83624416	0.62141638
0.61090398	0.05245344	0.13805366
0.65348824	0.56118721	0.09715543
0.12315503	0.30240847	0.14496757
0.16089907	0.81246825	0.11620565
0.11206864	0.06172039	0.65231052
0.15850735	0.571675	0.63362349
0.62419517	0.3153507	0.6465758
0.67190866	0.8342241	0.62213326
0.60488026	0.05226506	0.1326971
0.66062024	0.56313611	0.10273315
0.12265266	0.29886518	0.15539856
0.16702386	0.81283185	0.10447781
0.11046079	0.0594645	0.64639634
0.15292973	0.57045066	0.62862779
0.62830426	0.31255044	0.64188867
0.67501447	0.83137786	0.63106122
0.5996055	0.04841687	0.12992473
0.6741795	0.56350683	0.11145149
0.11884247	0.2985459	0.15672543
0.17069484	0.81471604	0.10389011
0.10256618	0.05603537	0.64522673
0.14676466	0.57006849	0.62467966
0.63237622	0.31039428	0.63777088
0.67487074	0.82877527	0.64568902
0.5945317	0.04257074	0.13438748
0.68780603	0.5621555	0.11776912
0.11241834	0.29918984	0.14929258
0.17322453	0.81713913	0.11086
0.09229927	0.05301808	0.64868853
0.143172	0.57012681	0.62284417
0.6313947	0.30883032	0.6383583
0.67403337	0.8260731	0.65502174
0.5908728	0.03747761	0.14589175
0.69529631	0.5591521	0.1183198
0.10567269	0.30012863	0.14092467
0.17683471	0.81913033	0.1193895
0.08252859	0.05218461	0.65512978
0.14606606	0.57037548	0.62184301
0.62331201	0.30823477	0.64656574
0.67465037	0.82296702	0.65731216
0.59085936	0.03436399	0.15768022
0.6981018	0.55535239	0.11525392
0.09963887	0.30244308	0.13672557
0.17961323	0.81887104	0.12342696
0.07518896	0.0536314	0.66431344
0.15312623	0.56985837	0.61880444
0.61144229	0.30755179	0.65990052
0.67649091	0.8193132	0.65465795
0.59398157	0.03391229	0.16320756
0.70039318	0.55217	0.10996985
0.0973614	0.30609863	0.14314689
0.18199654	0.81755367	0.12342768
0.07767583	0.05569604	0.67364419
0.16004495	0.56777359	0.61532668
0.60206012	0.30744651	0.67445112
0.67677316	0.81529715	0.64463532
0.5986406	0.03546392	0.15831938
0.70397833	0.54968061	0.10763392
0.1007005	0.31039973	0.15284468
0.18232654	0.81575187	0.12227372
0.08196999	0.05758464	0.68214099
0.16599882	0.56512085	0.61341621
0.5992096	0.30924244	0.68451572
0.67541486	0.81240916	0.63256395
0.60268408	0.03743079	0.14797688
0.7051848	0.54766191	0.11066033
0.10514335	0.31375833	0.1565242
0.18189581	0.81275708	0.12069079
0.08333344	0.05860469	0.68933958
0.17017699	0.56158568	0.61310743
0.603758	0.31122993	0.68747374
0.67431624	0.8128866	0.62382114
0.6045535	0.03947345	0.14176898
0.69766845	0.54652508	0.1176436
0.10873044	0.31403633	0.15292589
0.18279505	0.81112926	0.12117151
0.08165025	0.05863005	0.69363842
0.17095055	0.558451	0.61687909
0.61319271	0.31206049	0.68305824
0.67369504	0.8155619	0.61991461
0.60410726	0.04099354	0.1420236
0.68603664	0.54701285	0.12453587
0.11209974	0.31150816	0.14643722
0.18531092	0.81203981	0.12342643
0.07977686	0.05794145	0.69303664
0.16891825	0.55705052	0.6235055
0.62143858	0.31040185	0.67260879
0.67560941	0.81835778	0.61996157
0.60140635	0.04173731	0.14633078
0.67773462	0.54969226	0.12533087
0.11508212	0.30729738	0.1417131
0.18993619	0.81421591	0.12599372
0.08006041	0.05671102	0.68809651
0.16370198	0.55707164	0.63169284
0.62602052	0.30574853	0.66233702
0.68060351	0.81924626	0.62223431
0.59916563	0.04240489	0.15028619
0.67629519	0.55426395	0.12224205
0.11959014	0.30300675	0.14150557
0.19423484	0.81699379	0.12748355
0.07801739	0.05487735	0.68185966
0.15821546	0.55865425	0.64064353
0.62728806	0.3011472	0.65411179
0.68388348	0.81797682	0.62559085
0.60152776	0.04335728	0.15007717
0.67910764	0.55902759	0.12100237
0.12510234	0.30102216	0.14410531
0.19511367	0.81928535	0.12613461
0.07151912	0.05210153	0.67867567
0.1578175	0.56118363	0.64611351
0.6269398	0.29913387	0.647518
0.68407013	0.81649109	0.63204713
0.60692122	0.04558829	0.14705408
0.68334705	0.56152364	0.12436138
0.12820503	0.30125079	0.14751201
0.1919596	0.82042496	0.12526371
0.06526288	0.04922168	0.67900772
0.15993649	0.56382423	0.64723345
0.62757144	0.3013632	0.64176073
0.68087432	0.81560304	0.64020584
0.61165755	0.04956957	0.1445291
0.68414349	0.56077537	0.13040484
0.13130051	0.3026416	0.14802674
0.18503268	0.82009626	0.12881785
0.06017534	0.0477632	0.67981195
0.16140855	0.56606067	0.64573033
0.62907902	0.30632416	0.63705401
0.67654907	0.81506166	0.64449091
0.61438217	0.0535373	0.14805384
0.68035068	0.55880741	0.13636672
0.13335135	0.30397168	0.14416118
0.17643555	0.81907037	0.13495307
0.06253808	0.04824942	0.67935138
0.1619878	0.56659177	0.64279092
0.63024265	0.31003893	0.63439476
0.6760997	0.81520482	0.64187156
0.61503372	0.05597111	0.15892731
0.67404104	0.55823008	0.13922755
0.13255683	0.303994	0.13819741
0.16886135	0.81833755	0.14176353
0.07438659	0.05011093	0.67683232
0.16081752	0.5647515	0.64104647
0.63031626	0.31099563	0.63348683
0.67866128	0.81595574	0.63490516
0.6135897	0.05685418	0.16965143
0.66564336	0.55903663	0.13771093
0.13226045	0.30350178	0.13120506
0.1629311	0.8185802	0.14684831
0.0886744	0.05269578	0.6755025
0.15868892	0.56237593	0.63972918
0.62890195	0.30976032	0.63506077
0.68106263	0.81739729	0.62955876
0.61217607	0.05559797	0.17466032
0.65926729	0.56166416	0.13531518
0.13176299	0.30386994	0.12566606
0.15950226	0.81990052	0.14762151
0.10240797	0.05459158	0.67646642
0.15580731	0.56115829	0.63880631
0.6282845	0.30848519	0.63405251
0.67959576	0.82010982	0.63001035
0.61299548	0.0544615	0.17291917
0.65632961	0.56491658	0.13311115
0.13215251	0.30572639	0.12323564
0.15618022	0.82126646	0.144216
0.11135878	0.05472956	0.67784841
0.15101598	0.562807	0.63898211
0.62988269	0.30922818	0.62747075
0.67198557	0.82381295	0.63539521
0.61893407	0.05510505	0.16308931
0.65580996	0.56687358	0.13123527
0.13563514	0.308611	0.12271228
0.15235272	0.82254518	0.13680804
0.11393667	0.05378981	0.67752383
0.14503201	0.56678743	0.64021619
0.63260016	0.31099004	0.6199919
0.66178077	0.82789314	0.64440973
0.62411067	0.05661072	0.15120871
0.65629841	0.5677665	0.12934532
0.13777974	0.31115935	0.12324829
0.1479107	0.82321799	0.12929786
0.11553919	0.05304592	0.67186781
0.13785313	0.57136407	0.64480634
0.63615525	0.31237621	0.61504118
0.65319382	0.83097576	0.65409668
0.62501248	0.05921902	0.14263713
0.65446605	0.56823308	0.12665236
0.13946498	0.31313106	0.1245059
0.14306718	0.82309544	0.12468715
0.11744958	0.05334441	0.66288647
0.12981756	0.57436398	0.65155374
0.63996866	0.31245293	0.61648914
0.64841597	0.83154752	0.6606468
0.62342949	0.06220454	0.14030337
0.65117428	0.57004512	0.12290287
0.14000614	0.31491769	0.12648322
0.1391669	0.82370105	0.12568357
0.12212717	0.05524983	0.65383072
0.12225685	0.57464571	0.65644546
0.64322818	0.31176665	0.62586631
0.64867651	0.83019465	0.66296082
0.62144461	0.06444396	0.1423353
0.65020481	0.57288943	0.1201804
0.137106	0.31659786	0.12879258
0.13481122	0.82619631	0.13252993
0.12933021	0.05855011	0.64593123
0.11776007	0.57289977	0.65767323
0.64735148	0.31327755	0.63593302
0.65080215	0.82852208	0.65980917
0.62279998	0.06514914	0.14252284
0.65267616	0.57514948	0.11958421
0.13442381	0.31941987	0.1302654
0.12984423	0.83019857	0.14159069
0.13365456	0.06149848	0.63991985
0.11894492	0.57127942	0.65250773
0.65024286	0.31816878	0.64289276
0.649083	0.82768828	0.65137342
0.62952576	0.06300475	0.13807963
0.65627426	0.57702735	0.12046261
0.13208227	0.32324443	0.12874646
0.12385914	0.8345145	0.14817108
0.13601551	0.0630536	0.63459972
0.12562453	0.57153139	0.64166802
0.64979015	0.32520409	0.64483848
0.64137199	0.82761038	0.64097965
0.63941358	0.06115781	0.13148394
0.6569087	0.57854478	0.12211111
0.13011011	0.32617252	0.12357285
0.1163597	0.83758571	0.15155594
0.13829171	0.06337843	0.62732013
0.13328787	0.57417756	0.63342632
0.64822249	0.33148651	0.64241636
0.6291139	0.82812361	0.6322746
0.65165195	0.06173687	0.12205788
0.64978912	0.57949109	0.12265356
0.1306235	0.32790018	0.11698765
0.10695359	0.8392377	0.15164153
0.14135871	0.0642304	0.61890957
0.13571316	0.5781719	0.63039723
0.64867814	0.33303957	0.6384189
0.6157239	0.8290415	0.62786913
0.66338263	0.06409505	0.11159312
0.63736605	0.58051206	0.12139816
0.13163004	0.32863892	0.1133382
0.09689377	0.83980062	0.14821348
0.14869826	0.06746792	0.61032957
0.12997961	0.58152252	0.63389819
0.65213833	0.32926473	0.63433493
0.60613314	0.83051477	0.6282578
0.67270848	0.06796252	0.10101653
0.62400649	0.58119267	0.11889011
0.13208441	0.32882906	0.11473219
0.08801164	0.840102	0.14223409
0.15590475	0.07237022	0.60420707
0.11889119	0.58093047	0.64129824
0.65743124	0.32207286	0.63315287
0.60122281	0.83317538	0.63288298
0.6768882	0.07116061	0.08893879
0.61153264	0.5811553	0.11627348
0.13098587	0.33040048	0.11822012
0.08300011	0.840904	0.13284064
0.15831311	0.07776796	0.6036539
0.10796748	0.57826134	0.64637256
0.66138602	0.31586238	0.63815279
0.59898421	0.83682521	0.63808525
0.67629943	0.07265586	0.07726819
0.60379007	0.58092216	0.11708536
0.12645169	0.33326775	0.12029415
0.08172054	0.8411269	0.12034701
0.15700916	0.08149486	0.60324073
0.10222287	0.57672555	0.64765349
0.66367496	0.3150497	0.64418344
0.5983213	0.84057388	0.63965518
0.67477721	0.07403001	0.06962253
0.60039054	0.58088942	0.12115367
0.12077739	0.33629738	0.12016381
0.08263828	0.83969774	0.11051478
0.15143567	0.08171936	0.6002325
0.10175866	0.5779989	0.64598467
0.66373237	0.31878541	0.64820484
0.59674058	0.84291873	0.63748143
0.67259662	0.07610551	0.06973826
0.59841815	0.58282518	0.12523818
0.11681773	0.33916388	0.11763474
0.08410723	0.83721049	0.11015935
0.14753114	0.07975798	0.59492305
0.10461248	0.58234848	0.64144086
0.66049574	0.32461115	0.65105525
0.59361694	0.84388535	0.63251882
0.67061202	0.08055708	0.07522351
0.59718281	0.58752454	0.12799546
0.11692213	0.33958985	0.11458252
0.08351564	0.83603521	0.11510268
0.15113517	0.0775827	0.58995648
0.10732837	0.58772997	0.63780069
0.65562299	0.3310212	0.6507262
0.58991858	0.84396516	0.62691466
0.6703188	0.08703407	0.08177353
0.59369717	0.59342983	0.1287312
0.12116821	0.33815981	0.11491156
0.0810308	0.83720281	0.12204964
0.16202253	0.07656599	0.58851306
0.1080951	0.59151495	0.63431047
0.6502513	0.33518281	0.64658176
0.58525159	0.8434484	0.62285965
0.67166738	0.09168676	0.0870926
0.58805085	0.59680467	0.12994127
0.12600722	0.33678493	0.11606323
0.07670406	0.8406446	0.1250815
0.17812897	0.07704161	0.58873249
0.10686623	0.59228668	0.63083975
0.6446214	0.33731014	0.63960049
0.58276404	0.84389683	0.62058486
0.6738786	0.09342385	0.08995279
0.58143952	0.5956732	0.13393086
0.12808244	0.33554749	0.1150772
0.07255385	0.84555896	0.12287954
0.19081836	0.07841642	0.58825077
0.10417739	0.59079459	0.62881536
0.6396215	0.33767437	0.63234765
0.5823147	0.84676648	0.6220449
0.67799191	0.09064647	0.08880439
0.57383101	0.59182937	0.14027948
0.12659082	0.334674	0.11010497
0.07080451	0.85086262	0.12245114
0.19314788	0.07969543	0.58763255
0.10103828	0.58986036	0.62592324
0.6347377	0.33693545	0.62639576
0.58118849	0.8510859	0.62639032
0.68220382	0.08461666	0.08493387
0.56942986	0.58861305	0.14851339
0.12028121	0.33387069	0.10169483
0.07014909	0.85582891	0.12191192
0.18764375	0.08025626	0.58637995
0.09793213	0.59088534	0.6233137
0.63012821	0.33602076	0.62217077
0.58012858	0.85559838	0.63259471
0.68601793	0.07983279	0.0803441
0.57050828	0.58754187	0.15628369
0.11221936	0.33385703	0.09373195
0.06939443	0.85959148	0.11872503
0.17762822	0.07996753	0.5850028
0.09287917	0.59271779	0.62352447
0.62916755	0.33473997	0.61938541
0.57942178	0.85724797	0.63978829
0.68603421	0.07787321	0.07822418
0.57427485	0.58902811	0.15734178
0.10782927	0.33580538	0.09005775
0.06871218	0.86111497	0.11621083
0.17211198	0.07882369	0.58243407
0.08182204	0.59475812	0.62531062
0.63066377	0.33408373	0.61775176
0.57977555	0.85598105	0.64332378
0.67883593	0.07814602	0.07878682
0.58001466	0.59150336	0.15053408
0.10656715	0.33810456	0.09602244
0.06737645	0.85913918	0.11348109
0.17524105	0.07761659	0.57870035
0.06671676	0.5954004	0.62925307
0.63358122	0.33515136	0.61677488
0.58291885	0.8525117	0.64405389
0.66709879	0.08084509	0.08125688
0.58705727	0.59396479	0.13810153
0.108939	0.34023817	0.10841937
0.06566512	0.85422568	0.11270678
0.18224468	0.07714309	0.57825855
0.05499437	0.59352789	0.63391587
0.64015969	0.33714907	0.61656786
0.58770707	0.84714872	0.64482848
0.65596886	0.08313642	0.08603971
0.59259866	0.59666552	0.1258675
0.11526218	0.34201324	0.11799247
0.06494897	0.84857998	0.11459258
0.1882817	0.07754882	0.58207175
0.05305491	0.59080255	0.63646563
0.64822254	0.33878556	0.61810632
0.59323079	0.84266787	0.64687325
0.65270711	0.08411753	0.08914093
0.59534263	0.59882441	0.12083926
0.12306409	0.34290888	0.11960718
0.06356206	0.84354483	0.11637938
0.18922313	0.0787474	0.58876376
0.05737426	0.58741427	0.63713231
0.65672716	0.33914156	0.61988755
0.59762787	0.84188627	0.65116259
0.65977419	0.08356703	0.09147284
0.59400343	0.60006849	0.12291055
0.13069184	0.34319943	0.10870633
0.06062352	0.84017407	0.11784211
0.18271579	0.0787313	0.5986825
0.06365998	0.58471745	0.63494319
0.66176072	0.33850494	0.62137655
0.60006878	0.84447275	0.65671427
0.67240931	0.08035575	0.09629128
0.58764016	0.60032297	0.12871803
0.1345074	0.34236633	0.09393455
0.05903221	0.83941872	0.1166844
0.17152887	0.07705774	0.60763509
0.06764517	0.58281	0.63150972
0.65498901	0.33734349	0.61891739
0.60205223	0.84812331	0.66187106
0.68325523	0.07661225	0.10312415
0.5826883	0.59860711	0.13701
0.13408639	0.33927053	0.0866753
0.06339914	0.84039189	0.11295276
0.1592108	0.07529505	0.6117483
0.07012262	0.58075452	0.631871
0.64108486	0.33481481	0.61395029
0.60230932	0.84934135	0.66481913
0.68711245	0.07402271	0.10803985
0.581091	0.59486424	0.14148699
0.13245038	0.33462037	0.09160962
0.07371985	0.84145391	0.10969379
0.14852176	0.07375602	0.61327343
0.07420622	0.58002334	0.63508957
0.62535682	0.33083564	0.61038164
0.60175803	0.84662914	0.66413101
0.68382236	0.07292072	0.1099407
0.5846722	0.59015268	0.14069831
0.12960445	0.32891885	0.10258588
0.08617968	0.84075369	0.10860254
0.14212878	0.07343435	0.61532292
0.08343868	0.58034474	0.63872449
0.61286376	0.32712008	0.60967072
0.60547353	0.8412932	0.66107899
0.67736586	0.07396869	0.11111165
0.5940531	0.58575223	0.13808666
0.12648586	0.32410747	0.1085895
0.09746486	0.83816849	0.10967987
0.13922347	0.07341253	0.61882955
0.09577227	0.58069958	0.64187524
0.61314422	0.32411141	0.61251141
0.61193297	0.83543609	0.65672149
0.67015961	0.07615359	0.11311598
0.60418355	0.58196996	0.13469396
0.12398392	0.32183103	0.10594917
0.10478142	0.83509069	0.11333498
0.13738479	0.07233727	0.62450615
0.10597813	0.58116183	0.64195678
0.62247734	0.32298092	0.61900116
0.61911391	0.83113703	0.65310495
0.66367711	0.07756376	0.11535057
0.6134394	0.57876857	0.13221732
0.12095749	0.3204091	0.10065801
0.10885283	0.8322715	0.11751034
0.1353516	0.07055582	0.63179127
0.11164625	0.58056096	0.63914983
0.63539639	0.32390512	0.62548605
0.62625441	0.82922852	0.65122694
0.65814006	0.0768243	0.11651449
0.62039748	0.57612128	0.13118083
0.11917666	0.31944414	0.0957442
0.1120363	0.82978895	0.12194223
0.13236803	0.06807931	0.63811064
0.11361988	0.58048975	0.63569394
0.64723759	0.32563696	0.63025627
0.63212675	0.82930234	0.65007941
0.65397942	0.07264052	0.11552525
0.62398377	0.57424285	0.13129862
0.11937527	0.31827926	0.09417256
0.11438383	0.82818065	0.12707098
0.13087655	0.06548985	0.6421364
0.11480248	0.58123652	0.6326633
0.65111798	0.32568356	0.63284786
0.63759913	0.83047974	0.64910822
0.65024035	0.06742397	0.11567748
0.62579198	0.57318338	0.13262338
0.12100982	0.31631097	0.09961454
0.11565374	0.8273395	0.13045656
0.13281612	0.06343675	0.64597382
0.11744405	0.58015505	0.63275988
0.64867453	0.32300073	0.63375555
0.64232223	0.8321071	0.64737043
0.6462751	0.06408927	0.11770707
0.62749927	0.57346107	0.13406368
0.12389176	0.31504166	0.10905943
0.11811726	0.82684843	0.13329352
0.1331662	0.06128854	0.64865922
0.12309391	0.57741437	0.63423114
0.64170079	0.32012328	0.63605188
0.64551056	0.833289	0.64449266
0.64240963	0.06275281	0.12162736
0.63077565	0.57469339	0.13469969
0.12736466	0.31558796	0.11909228
0.12333643	0.82643074	0.13676529
0.13018297	0.059599	0.64792628
0.13028228	0.57359203	0.63465015
0.63356643	0.31825343	0.63975824
0.64778758	0.83371599	0.64085469
0.63733253	0.06198984	0.12747229
0.6362476	0.57494337	0.13486759
0.13086367	0.31671106	0.1257115
0.13317872	0.82549352	0.14168936
0.12391477	0.05888598	0.64424676
0.13615784	0.56957802	0.63499581
0.63045955	0.31740299	0.6433682
0.64907458	0.83283653	0.63579392
0.63066582	0.06143352	0.13362867
0.6413194	0.57319788	0.1353067
0.13453517	0.31728635	0.12474359
0.14666319	0.82484778	0.14664458
0.11538263	0.05930856	0.64026555
0.13926795	0.56746578	0.63471738
0.62830535	0.31701056	0.64524323
0.65002643	0.83145228	0.63129979
0.62447569	0.06019283	0.13880579
0.6455833	0.56987351	0.13568512
0.13715089	0.3162721	0.12268259
0.15962172	0.82472094	0.14863817
0.10956267	0.06062514	0.63619656
0.13976543	0.56661471	0.63519616
0.62586413	0.31619963	0.64585279
0.65260217	0.82956159	0.62877519
0.6202851	0.05789799	0.14140651
0.65006784	0.56629178	0.13316221
0.13716762	0.31305604	0.12571089
0.16829102	0.82453672	0.14711814
0.10712335	0.06012301	0.63463044
0.13924696	0.56664377	0.63805848
0.62606162	0.31368216	0.64708928
0.65679722	0.82638117	0.6273641
0.61910106	0.05516986	0.14085422
0.65644781	0.56331743	0.12622684
0.13587296	0.30892617	0.13455029
0.1675923	0.82454438	0.14298098
0.10609976	0.05731668	0.63922602
0.1394161	0.56730054	0.63901533
0.62531426	0.31030904	0.6489061
0.66216705	0.82256955	0.62761725
0.6199825	0.05202346	0.13907859
0.66642371	0.56176011	0.11725463
0.13406363	0.30533262	0.14628712
0.15987188	0.82445446	0.13731876
0.10662695	0.05416286	0.64730369
0.14278566	0.5677031	0.63741227
0.62966494	0.30892509	0.65055681
0.66800762	0.81878116	0.62996579
0.62136249	0.04881722	0.13814384
0.6770709	0.56207337	0.11006981
0.13087286	0.30428312	0.1529142
0.15142194	0.82334139	0.13268664
0.10581768	0.05122833	0.65548649
0.14942103	0.56857545	0.63592536
0.63973301	0.30954834	0.65205303
0.67347164	0.81649531	0.63362822
0.62091441	0.04627036	0.13959708
0.68497345	0.56248497	0.10628424
0.12645145	0.30583689	0.15371726
0.14618156	0.82199466	0.12965321
0.1026344	0.05056388	0.6619007
0.1550076	0.5691984	0.63225742
0.64857862	0.31089883	0.65340975
0.67834061	0.81639282	0.63879105
0.61556184	0.04506193	0.14444646
0.68889286	0.56144486	0.10753981
0.12233921	0.30897871	0.14885944
0.14770368	0.82109176	0.12634808
0.09687183	0.05208255	0.66418522
0.15921885	0.569135	0.62912168
0.6537192	0.31128005	0.65633039
0.68074106	0.81723216	0.6438006
0.60546882	0.04493322	0.15329477
0.6887885	0.55956305	0.11153891
0.12030193	0.31264266	0.14104189
0.1547662	0.82081181	0.12384207
0.08881397	0.05353898	0.66365988
0.16150049	0.56914215	0.63055147
0.65094743	0.30900833	0.66055826
0.67922507	0.81711581	0.64538601
0.59540968	0.04603402	0.163331
0.68702685	0.5577715	0.11571547
0.12090241	0.31488785	0.13882838
0.16310104	0.82110069	0.12287989
0.08120191	0.0548008	0.66269409
0.16188074	0.56837436	0.63590029
0.64052752	0.30466354	0.66052426
0.67443039	0.81544296	0.6441536
0.58718299	0.04830461	0.16817323
0.68832611	0.55725236	0.11814442
0.12159082	0.31401686	0.14396503
0.16980775	0.8208927	0.12272789
0.07636084	0.05509044	0.66405505
0.16248605	0.56669609	0.64418061
0.6298339	0.29972102	0.65495621
0.66735824	0.8131057	0.63965721
0.5850842	0.05049626	0.16783791
0.69106839	0.55793331	0.11712221
0.1202122	0.31209771	0.15193945
0.17260268	0.82017883	0.12602654
0.07442746	0.05419243	0.66918118
0.16272162	0.56509704	0.65093235
0.62162131	0.29650566	0.6451589
0.66109959	0.81188307	0.63116281
0.5878581	0.05152146	0.1647515
0.69301646	0.55837935	0.11371222
0.11953428	0.30980995	0.15958103
0.17395646	0.81987184	0.13174898
0.07698517	0.05407703	0.67372498
0.16120904	0.56297952	0.65368354
0.62011489	0.29569846	0.63410652
0.65854627	0.81198374	0.61955271
0.59088047	0.05044932	0.16048231
0.68784744	0.55736672	0.11070283
0.12081055	0.30721646	0.1600448
0.17443232	0.82007841	0.1341483
0.08272923	0.05419905	0.67622127
0.15957506	0.56174489	0.65575048
0.62772025	0.29653244	0.62593644
0.6588166	0.81447667	0.60680086
0.59484658	0.04866687	0.15647725
0.67441965	0.55578631	0.10934248
0.12420141	0.30576555	0.1527624
0.17092583	0.82018072	0.13078043
0.08742747	0.05447553	0.67753564
0.15711034	0.56255016	0.65535137
0.63786659	0.29926451	0.62227935
0.66137311	0.81810346	0.59997952
0.59800861	0.04907187	0.15086825
0.66295151	0.55641016	0.11169462
0.13024407	0.30489405	0.14615601
0.16642214	0.81897751	0.11846317
0.08657693	0.05517891	0.67600246
0.15695015	0.56306533	0.6513233
0.64439323	0.30313316	0.62433325
0.66406356	0.82097875	0.60344953
0.59925634	0.05134243	0.14224377
0.65967721	0.56092522	0.11512884
0.13597285	0.30492633	0.14456684
0.1631158	0.81599616	0.10406847
0.07958781	0.05502597	0.6758485
0.16072572	0.56401256	0.64582366
0.64160732	0.3064284	0.63124971
0.66620732	0.82332922	0.6127136
0.60137863	0.05373371	0.13359686
0.66456136	0.56784402	0.11650181
0.1381154	0.30502342	0.14924529
0.16278411	0.81220143	0.09692107
0.07023266	0.05465242	0.67717053
0.1656076	0.56490895	0.63918923
0.62977442	0.31066478	0.6399099
0.6677673	0.82534609	0.62278138
0.60689148	0.05610023	0.13032546
0.6744805	0.57402956	0.11442985
0.13703465	0.3043907	0.15505125
0.16659311	0.80902401	0.09946977
0.06471279	0.05449182	0.67803515
0.17079646	0.56508808	0.63328896
0.61941118	0.31394893	0.64808143
0.66633817	0.82615752	0.62972591
0.61568218	0.05784287	0.13229613
0.67898274	0.57651303	0.10751356
0.13342708	0.30450073	0.15420427
0.17125639	0.80887929	0.1117787
0.06940166	0.05369622	0.68139088
0.16956427	0.5661914	0.62901673
0.61540705	0.31499701	0.65223609
0.66398707	0.82491236	0.6311675
0.62559737	0.05863516	0.13661636
0.67324847	0.57451129	0.10132228
0.12878281	0.30485367	0.14878079
0.17506684	0.81294008	0.12363517
0.08182554	0.05462657	0.68951272
0.16109788	0.56679823	0.62703227
0.61768849	0.31627384	0.64847324
0.66269125	0.82291281	0.63166999
0.63538867	0.05868864	0.14104647
0.65943698	0.56860566	0.10100307
0.12511496	0.30706602	0.14306443
0.17543122	0.81884192	0.12574776
0.10158166	0.05703844	0.69717544
0.1540623	0.56683639	0.62771554
0.62503976	0.31775743	0.63893557
0.66145562	0.82359969	0.63386974
0.64292274	0.05822507	0.1416161
0.64277182	0.56283268	0.10674237
0.12079843	0.30952056	0.14145457
0.17063917	0.82397029	0.12118411
0.11996125	0.05918984	0.70073015
0.14757236	0.56716559	0.62903514
0.62888922	0.32009476	0.63306816
0.66188146	0.82705044	0.63875108
0.64571145	0.05795361	0.13782806
0.62814718	0.55962167	0.11704014
0.11906772	0.31079881	0.14610893
0.16322103	0.82764592	0.11321413
0.13285241	0.05968245	0.69576466
0.14106682	0.56649447	0.63283469
0.62549775	0.32313996	0.63313321
0.66302445	0.83060797	0.64423632
0.6438831	0.05951875	0.13121726
0.61960931	0.55802396	0.12513605
0.12126883	0.31199264	0.1533883
0.15495602	0.83010849	0.11468559
0.13959707	0.0582641	0.68249132
0.13626519	0.56619097	0.63922518
0.62230535	0.32487956	0.63714401
0.66365717	0.83286583	0.64779391
0.64058459	0.06135769	0.12545156
0.61616878	0.55853332	0.12787667
0.12370676	0.31374867	0.15913182
0.14876405	0.83126615	0.12338748
0.13968398	0.05833549	0.66842008
0.13206366	0.56729906	0.64589468
0.62310145	0.32445372	0.64006989
0.66233572	0.83290713	0.6483904
0.63881204	0.06316752	0.12184715
0.61866135	0.56068671	0.12883357
0.12562372	0.31525171	0.15673944
0.14681816	0.83059388	0.13411723
0.13445099	0.06210986	0.65675598
0.12966504	0.56973628	0.65322966
0.62992637	0.32210749	0.63809999
0.65542997	0.83183135	0.64576978
0.63868384	0.06453119	0.11980751
0.62898104	0.56370278	0.12961298
0.12627877	0.31620222	0.14437134
0.1444014	0.82862519	0.14046552
0.12987875	0.06696606	0.65066146
0.13049732	0.57431883	0.65882285
0.64001489	0.31883073	0.6310895
0.64567931	0.83191206	0.64224602
0.63688474	0.06430197	0.11977095
0.6423051	0.56779332	0.13183266
0.1247258	0.31602752	0.12906327
0.14023589	0.82697524	0.1400015
0.12727767	0.06913356	0.64998223
0.13115034	0.57868032	0.65894185
0.64776563	0.31618921	0.62232581
0.63808624	0.83321807	0.64086587
0.63336736	0.06323444	0.12245204
0.65387688	0.57166027	0.13528806
0.12317018	0.31519945	0.11821504
0.13449309	0.82746408	0.13568523
0.12689004	0.06940481	0.65066983
0.1306622	0.58031657	0.65605598
0.65044257	0.31496561	0.61771359
0.63463547	0.83500377	0.64480358
0.62974849	0.06139245	0.12628528
0.65745353	0.57436473	0.135082
0.1218256	0.31521117	0.11715255
0.12783155	0.8292636	0.13132123
0.12774038	0.06940451	0.65018085
0.12881636	0.58015862	0.650631
0.64904498	0.31510247	0.62088212
0.63640632	0.83588325	0.65201316
0.62711587	0.05886472	0.12863308
0.6538768	0.57626595	0.13013426
0.11968054	0.31658334	0.1228463
0.12249151	0.83106985	0.13299978
0.12887169	0.06969705	0.64643571
0.12552895	0.57875223	0.64455029
0.6460694	0.31755807	0.62894387
0.64127819	0.83510905	0.65792339
0.62705794	0.05724373	0.12645957
0.64686402	0.57625326	0.12221857
0.11808661	0.32040878	0.12937198
0.12074634	0.83277874	0.14261193
0.13117819	0.07050232	0.63883418
0.1231824	0.57770142	0.64299977
0.64488248	0.32071844	0.63814349
0.64633106	0.83239396	0.65817887
0.62952353	0.05621746	0.12014579
0.63785446	0.57500943	0.11684609
0.11518173	0.32532035	0.13076373
0.12121214	0.8345815	0.15297222
0.13585757	0.0710488	0.63165025
0.12175158	0.57807372	0.64316526
0.64548208	0.32261577	0.64296765
0.64882522	0.82875815	0.65177115
0.63395411	0.05538713	0.11377357
0.62920448	0.57368406	0.11857902
0.11264173	0.32901527	0.1269356
0.12020853	0.83698698	0.15768446
0.14167224	0.07042998	0.62713105
0.1199966	0.5785961	0.64357324
0.6475004	0.32270765	0.64152872
0.64636097	0.8268833	0.64369535
0.63996028	0.05591946	0.11150338
0.62143236	0.57263369	0.12575927
0.1140811	0.33068051	0.12183671
0.11493551	0.83933743	0.15521636
0.14707667	0.06858294	0.62357279
0.11889945	0.57835985	0.6441569
0.64954596	0.32120663	0.63719114
0.64029675	0.82798468	0.63787671
0.6457824	0.05758225	0.11418926
0.6148427	0.57274108	0.13614435
0.1177412	0.33046949	0.11900022
0.10677879	0.840145	0.15062676
0.1486628	0.06666335	0.6203384
0.11736081	0.57784623	0.64406695
0.64890908	0.3192305	0.63399399
0.63250067	0.83061173	0.63584957
0.6509058	0.06081154	0.11723579
0.61317639	0.57356079	0.14545704
0.12474037	0.32874851	0.11960538
0.10106371	0.83949456	0.14651193
0.14409284	0.06579183	0.61729313
0.11606731	0.57668481	0.64419462
0.64636577	0.31864355	0.6325909
0.62348497	0.83272933	0.63638811
0.65487052	0.06604741	0.11774591
0.61531552	0.57495236	0.15051179
0.13429618	0.32689968	0.12135689
0.09965199	0.83822659	0.14367956
0.13809194	0.06551376	0.61496983
0.11709611	0.57664659	0.64420423
0.64346526	0.320056	0.6326008
0.61493943	0.83171982	0.63657333
0.6568376	0.0708749	0.11454376
0.61872286	0.57797735	0.14913236
0.14351398	0.32595358	0.1217969
0.10403401	0.83752014	0.1401358
0.13588321	0.06536656	0.61414789
0.11767227	0.57852685	0.64323725
0.64219517	0.32167217	0.63245721
0.60945805	0.82843798	0.63625879
0.65589748	0.07436534	0.10770811
0.62402077	0.58109947	0.1422953
0.15235244	0.32579314	0.12003328
0.11178653	0.83845473	0.13381572
0.13900517	0.06585667	0.61517369
0.11682082	0.58080279	0.64215987
0.64509362	0.32251758	0.63112709
0.60758819	0.82595893	0.63518716
0.65332452	0.07671357	0.10359465
0.62784074	0.58360518	0.1335884
0.15727702	0.32613308	0.11773011
0.11694722	0.8403933	0.1243915
0.1443664	0.06624086	0.61905709
0.11527918	0.58297933	0.64062021
0.64989467	0.32255248	0.63089212
0.60911961	0.82659809	0.63575687
0.65022549	0.07776754	0.10312227
0.6278903	0.58601454	0.12641562
0.15491786	0.32615166	0.11732396
0.11847115	0.84123091	0.11492602
0.14885844	0.06607587	0.62046362
0.11161424	0.58199772	0.63849772
0.65170517	0.32183999	0.63365667
0.61327159	0.83052766	0.64074633
0.64956892	0.07822715	0.10494903
0.6256899	0.58751745	0.12285631
0.14808961	0.32512282	0.11874745
0.11630616	0.83963042	0.11102928
0.15208786	0.06591474	0.61759274
0.10882505	0.5779262	0.6380993
0.64730419	0.32093549	0.64025412
0.61825206	0.83604604	0.64667892
0.65225803	0.07750914	0.10656669
0.61977934	0.58959102	0.12477166
0.13749747	0.3240221	0.12123862
0.11263522	0.83597689	0.11199094
0.15261652	0.06575152	0.61372444
0.10928099	0.57354653	0.63904363
0.63889247	0.32059028	0.64946112
0.62324065	0.84013012	0.65008642
0.65754531	0.07592117	0.10629195
0.6132277	0.59151169	0.12989296
0.12870764	0.32421478	0.12500078
0.11077272	0.83151177	0.1162007
0.1512595	0.06506303	0.60947362
0.11169089	0.57040571	0.64019947
0.63482532	0.32086984	0.65840996
0.62360017	0.84172023	0.64744473
0.66216727	0.07483152	0.10580541
0.60953948	0.59143356	0.13703144
0.12421835	0.32690002	0.12835
0.10931007	0.82833976	0.11862983
0.15018567	0.06424604	0.60576449
0.11621865	0.5704625	0.64139217
0.63565583	0.32172848	0.66132558
0.61464429	0.84073586	0.63738761
0.66477111	0.07486705	0.10723084
0.60784246	0.58960358	0.14448784
0.12158793	0.33078602	0.12935166
0.10544547	0.82739087	0.11593662
0.14906322	0.06378197	0.60673852
0.11998574	0.57303947	0.63912718
0.63841491	0.32332532	0.65391595
0.60221694	0.83856309	0.62622382
0.6655802	0.07788619	0.11061692
0.61012526	0.58675694	0.14593518
0.12067283	0.33173245	0.1286749
0.09793077	0.82832169	0.10893106
0.14621433	0.06264258	0.61120566
0.12204443	0.5759885	0.63406905
0.64160922	0.3254613	0.64084391
0.5928297	0.83757626	0.62174407
0.66265855	0.08318873	0.11494618
0.6172316	0.58493982	0.14190205
0.12008228	0.32905052	0.12794992
0.08946868	0.82991988	0.10138823
0.14042851	0.0615685	0.61940626
0.12393926	0.57785014	0.62865796
0.64199066	0.32745007	0.62722415
0.59350255	0.83822995	0.62242511
0.65367413	0.08725887	0.11994279
0.62471915	0.58629688	0.13645061
0.11951567	0.32390879	0.12820963
0.08365106	0.82943886	0.09677444
0.13128679	0.0630189	0.62748611
0.12434613	0.57760516	0.62360496
0.6399368	0.3294753	0.61635216
0.6064537	0.84020299	0.6280066
0.6419795	0.08664498	0.12683873
0.63172719	0.58885064	0.13066956
0.11888302	0.3175981	0.12879101
0.0824339	0.82874474	0.09336494
0.12035651	0.06626084	0.63097846
0.12270374	0.57452245	0.62184039
0.63726022	0.33188572	0.61345372
0.61916142	0.84175031	0.64025362
0.63072205	0.08187972	0.1333689
0.63590459	0.59086358	0.12162343
0.11640901	0.31496074	0.12838043
0.08870769	0.82996647	0.09140843
0.11212082	0.07059879	0.63060693
0.12071473	0.57279379	0.62416851
0.6364577	0.3340961	0.61683566
0.62726577	0.84271402	0.65390451
0.62249543	0.07607821	0.13600414
0.6360604	0.58945684	0.10927508
0.11616781	0.31493772	0.12433406
0.09705627	0.83158194	0.09505043
0.11002009	0.07528145	0.62706402
0.11731022	0.5757691	0.62520756
0.6396214	0.33536845	0.62154101
0.63335052	0.84501397	0.6622096
0.62002213	0.07383252	0.13862483
0.63715109	0.58403797	0.09936477
0.11906023	0.31649628	0.11642913
0.10069958	0.83284362	0.10274042
0.11407568	0.07827541	0.62161885
0.11469625	0.58064823	0.62152033
0.64462348	0.33663325	0.62805856
0.63283953	0.84782418	0.66268499
0.62319691	0.07349887	0.14006994
0.63872723	0.57876422	0.09800919
0.12145692	0.31900332	0.10761
0.09874967	0.83371889	0.1115382
0.12133609	0.07745681	0.62048506
0.11546207	0.58442318	0.61608327
0.6476149	0.33785955	0.6363593
0.6295184	0.84816061	0.6569648
0.63050966	0.07281856	0.13719705
0.63794753	0.57702059	0.10155104
0.1214523	0.32144956	0.10201281
0.09506341	0.83306313	0.11943203
0.12584473	0.07405419	0.62387693
0.11711898	0.58269169	0.61049304
0.64648053	0.33859671	0.64521126
0.62595365	0.84434927	0.64748283
0.63818949	0.07157509	0.13717142
0.6361025	0.57818692	0.1047322
0.11875047	0.3221658	0.10110125
0.09712358	0.83196697	0.12454675
0.12555841	0.06912737	0.63174462
0.11980266	0.57868906	0.60696976
0.64089633	0.33798782	0.65106984
0.62251742	0.84029059	0.63609418
0.64421491	0.0681138	0.13929365
0.63365279	0.58271761	0.10209605
0.11298268	0.32052629	0.10409509
0.10726611	0.83105212	0.1257077
0.12264723	0.0646081	0.63994105
0.12029054	0.57630412	0.60576851
0.63245092	0.33621808	0.65022491
0.62197596	0.83766318	0.62507467
0.64627205	0.06406756	0.14166858
0.63204915	0.58706934	0.09660327
0.10795672	0.31786663	0.1103984
0.117378	0.83102086	0.12196416
0.11999976	0.0628416	0.63897884
0.11723258	0.5753832	0.6065568
0.62666342	0.33323866	0.64508479
0.62293351	0.83737944	0.61552091
0.64460812	0.06120582	0.14325292
0.63419456	0.58829703	0.09262805
0.10690739	0.3153255	0.11708429
0.12471016	0.83296438	0.11501057
0.11860702	0.06351195	0.63393153
0.11224163	0.57637203	0.61020248
0.62614781	0.32910466	0.63910537
0.62455195	0.83782053	0.60881828
0.64206898	0.05986383	0.13976139
0.6358244	0.58538012	0.09430318
0.1112282	0.31382272	0.1208552
0.12934058	0.83533999	0.10809536
0.11623027	0.06548716	0.63111053
0.10715018	0.57918856	0.61413565
0.63033707	0.32516426	0.63614437
0.62920241	0.83682276	0.60965777
0.63976961	0.06072904	0.13704368
0.63440387	0.57987442	0.10557972
0.11798849	0.31348986	0.12268408
0.13208883	0.83627485	0.10582166
0.1144636	0.06756565	0.62927745
0.1056922	0.58170414	0.61695908
0.63360245	0.32216859	0.63870013
0.63494496	0.83565363	0.61653931
0.63781517	0.0628376	0.13838883
0.62912539	0.5745953	0.1223877
0.12188811	0.31487281	0.12343158
0.13604208	0.83389166	0.10928217
0.11511078	0.06857558	0.62972578
0.10893888	0.58261871	0.61906393
0.62835414	0.32037408	0.64326534
0.63953872	0.8350701	0.62716033
0.63573054	0.06490303	0.14087302
0.62274473	0.57035045	0.1359106
0.1220107	0.31613573	0.12455719
0.14096566	0.82800631	0.11606633
0.11744519	0.06860966	0.63001927
0.1139253	0.58078426	0.62096503
0.61869514	0.32045112	0.64802262
0.64131435	0.8356378	0.63793797
0.63110537	0.06613281	0.14424024
0.62108088	0.56717253	0.1414293
0.12157591	0.31674881	0.12642333
0.14473754	0.82092505	0.12171357
0.12018507	0.06792993	0.63038382
0.11898505	0.57756157	0.62338423
0.60965556	0.32174099	0.65077207
0.63960745	0.83773315	0.64341384
0.62428407	0.06543637	0.14587023
0.62485535	0.56660069	0.13781867
0.12212581	0.31704624	0.12679627
0.14645606	0.81639423	0.12342021
0.12197604	0.06610925	0.63119289
0.12081576	0.57462587	0.62759652
0.60668523	0.32313581	0.65211233
0.6375542	0.83841081	0.64085069
0.61804724	0.06391381	0.14382637
0.62976253	0.56877929	0.13016939
0.12437529	0.3167158	0.12424992
0.14501047	0.81582258	0.12137802
0.1217096	0.06332271	0.63298736
0.11867406	0.57235245	0.63196383
0.61349161	0.3235892	0.65270091
0.63530552	0.83591347	0.63136265
0.61649853	0.06289729	0.14073339
0.63295748	0.57287894	0.12359989
0.12639759	0.31543664	0.12007865
0.14191019	0.81945651	0.11798962
0.11863283	0.06010706	0.63770935
0.11733831	0.57083737	0.63342868
0.62459749	0.32207899	0.6511423
0.63307642	0.831922	0.62360748
0.61934202	0.06168617	0.13780907
0.63345682	0.57723867	0.12234532
0.12541947	0.31304556	0.11584048
0.13913495	0.82436732	0.11610662
0.11486937	0.05771149	0.64139894
0.11959865	0.56985579	0.63130549
0.63376729	0.31882173	0.64833575
0.63386955	0.82737578	0.62504877
0.62376764	0.06083426	0.13597943
0.63250306	0.57882651	0.12635248
0.12175179	0.31040618	0.11276225
0.13719313	0.82683545	0.11650296
0.11208669	0.05747913	0.64261034
0.12408865	0.5690584	0.62895976
0.6357299	0.31510054	0.64332402
0.63577268	0.82452646	0.63393473
0.6275007	0.05990085	0.13555344
0.63271971	0.57751914	0.1334805
0.11664927	0.30784795	0.11325885
0.13663097	0.82688594	0.11837593
0.11040125	0.0587549	0.64360203
0.12890187	0.56840368	0.63024919
0.63250302	0.31287669	0.6352821
0.63720435	0.82339328	0.64614914
0.62783787	0.05884251	0.13504844
0.63551934	0.57440446	0.13984783
0.11314925	0.30708364	0.11781234
0.13533297	0.82548812	0.12080008
0.1115913	0.06072258	0.6432201
0.12982074	0.56766178	0.63498435
0.62801934	0.31285182	0.62718328
0.64086459	0.8234596	0.65372898
0.6259459	0.05909431	0.13233087
0.64075648	0.56993084	0.14201839
0.11245963	0.30964163	0.12453034
0.13193138	0.82382881	0.12335329
0.11602941	0.062053	0.6434174
0.12628491	0.56676492	0.64207016
0.62567049	0.31325545	0.62178918
0.64468665	0.8240937	0.65389566
0.62439829	0.06060507	0.12621593
0.64749569	0.56635319	0.14125057
0.11362796	0.31317868	0.13156646
0.12725069	0.82332825	0.12629316
0.12144648	0.06261471	0.64674598
0.12169726	0.56630718	0.64877257
0.62775199	0.31300006	0.62042828
0.64666699	0.82440854	0.65270683
0.62485745	0.06246905	0.12005816
0.65181021	0.56476018	0.13841578
0.11585589	0.31596486	0.13557392
0.12204763	0.82406593	0.13005352
0.12522265	0.06249466	0.65225489
0.11871824	0.56646513	0.65278688
0.63346459	0.31390439	0.62337104
0.64706126	0.82445694	0.65298596
0.62986768	0.06374454	0.11835625
0.654097	0.56424215	0.13542241
0.11771232	0.31763669	0.13360888
0.11953628	0.82565735	0.13402919
0.12550465	0.06132194	0.65724409
0.11826687	0.56682108	0.6527855
0.63961944	0.31542325	0.63086935
0.64555854	0.82330772	0.6556235
0.63576549	0.06255369	0.11964121
0.65576578	0.56465488	0.13485127
0.11928758	0.31800796	0.12724252
0.12173053	0.82719788	0.13608347
0.12260715	0.06031033	0.65861419
0.11946552	0.56667234	0.64826551
0.64531483	0.31613478	0.64148976
0.64425097	0.82067919	0.66064876
0.63941295	0.05888068	0.12384221
0.65603368	0.56574709	0.13550683
0.12291096	0.31778846	0.12169715
0.12579106	0.82868919	0.13402018
0.12121289	0.05976686	0.65484863
0.12050156	0.56568622	0.64084374
0.65054032	0.31593033	0.64873341
0.64411945	0.81846784	0.66538353
0.64189572	0.05621891	0.1275393
0.65589436	0.56697596	0.13490113
0.12837801	0.31790817	0.1209564
0.12859779	0.83111784	0.12952005
0.12152979	0.05927467	0.64824115
0.12131474	0.56466194	0.63550927
0.65238267	0.31395564	0.6463743
0.64542319	0.81764146	0.66593171
0.64413253	0.05597186	0.12436305
0.65408387	0.56828669	0.13119751
0.13492061	0.31905135	0.12305641
0.12895232	0.83454529	0.12704047
0.12238109	0.05879188	0.64207678
0.12227986	0.56546205	0.63718653
0.64994774	0.31069009	0.63842682
0.64792486	0.81942962	0.66183449
0.64843982	0.05776009	0.1155337
0.65100052	0.56917391	0.12667371
0.14231531	0.32032571	0.12347221
0.12836181	0.83715867	0.12911934
0.1218863	0.05824945	0.63809473
0.12432213	0.56920461	0.64357345
0.64509091	0.30725794	0.62727504
0.65080841	0.82094446	0.65743857
0.65599006	0.05962371	0.10732839
0.65095826	0.57010619	0.12532694
0.14781508	0.32174312	0.12259186
0.13013298	0.83713313	0.13552917
0.1167937	0.05769728	0.63804666
0.13059373	0.57481265	0.6510068
0.63863025	0.30437552	0.62133997
0.65566594	0.81956789	0.65458623
0.66129364	0.05960152	0.1022804
0.65232139	0.57117049	0.12895152
0.14743389	0.3229667	0.12316706
0.13600808	0.83374194	0.1442351
0.11270127	0.05757122	0.64103731
0.14076932	0.5804857	0.65479553
0.63289442	0.30218087	0.6246996
0.66227097	0.81837926	0.65264005
0.65918105	0.05713785	0.1005668
0.65648037	0.57181387	0.13417184
0.1448296	0.32364645	0.12808979
0.14367028	0.82911026	0.15171699
0.11711716	0.0581138	0.64693141
0.15257731	0.58484332	0.65313589
0.63082902	0.30132382	0.63327979
0.6675148	0.81690279	0.65058139
0.65350192	0.05315545	0.09951396
0.66326504	0.5730857	0.13660755
0.14245248	0.32447242	0.13776082
0.15086259	0.82673127	0.15254793
0.12833973	0.05947288	0.65330523
0.16426961	0.586954	0.65160407
0.63399299	0.3012835	0.64109291
0.66884213	0.81658075	0.64455144
0.64438512	0.05004903	0.10059737
0.66457003	0.57488067	0.13254123
0.14440963	0.32575015	0.15096626
0.15486542	0.82649818	0.14741759
0.14319979	0.0611819	0.65162243
0.1719217	0.5869745	0.65204193
0.64206455	0.30321666	0.64421133
0.6649041	0.81772067	0.63233896
0.6378405	0.04931433	0.10273655
0.66083595	0.57589197	0.12267706
0.15191395	0.32648065	0.16239456
0.15645564	0.82809367	0.14399297
0.15723464	0.06252982	0.64799233
0.17587984	0.5864611	0.65825138
0.65336084	0.30655583	0.64371219
0.65659865	0.81855957	0.62100934
0.64019249	0.05023227	0.1037005
0.65656198	0.57581607	0.11471838
0.15749703	0.32489052	0.16818908
0.15720098	0.83205463	0.14536773
0.1644569	0.0637044	0.64653544
0.17664914	0.58679079	0.66970587
0.66294254	0.30849454	0.6417562
0.64737944	0.81831534	0.61708425
0.64584778	0.05246019	0.10597943
0.6517788	0.57437406	0.11183376
0.15898782	0.32264551	0.16819332
0.15685293	0.83710913	0.15045924
0.16380328	0.06471367	0.64595352
0.17320797	0.58725302	0.6771128
0.66891655	0.3077556	0.64050749
0.64131999	0.81845999	0.6203463
0.65071399	0.05429896	0.11124932
0.65207563	0.57150438	0.11637996
0.15819577	0.32296315	0.16287598
0.15615492	0.84192452	0.15698229
0.15934746	0.06557796	0.64750345
0.16874699	0.585315	0.67793294
0.67012232	0.30430593	0.64115378
0.6416273	0.81845473	0.62668747
0.64524149	0.05513387	0.11673238
0.65814621	0.56835471	0.12318735
0.15289868	0.32636853	0.15525988
0.1551402	0.84412277	0.16187689
0.15273943	0.06739438	0.6466698
0.16367635	0.57988122	0.67517775
0.66698205	0.30169471	0.64235453
0.64902581	0.81800434	0.63079231
0.6348575	0.05552395	0.12048383
0.66615217	0.56618359	0.12609785
0.14779803	0.33145911	0.14966487
0.1544065	0.84288909	0.16269476
0.14704403	0.06922392	0.64441907
0.15852981	0.57368967	0.67041031
0.66273867	0.30383965	0.64075885
0.65776556	0.81772659	0.62936402
0.63038169	0.05680075	0.1195819
0.67477703	0.56634946	0.12448761
0.14388462	0.33575515	0.14782411
0.15288396	0.84111063	0.16018894
0.14367315	0.07026647	0.643665
0.1573293	0.57061784	0.66694714
0.65942033	0.30853831	0.63410467
0.66042368	0.81890673	0.62313967
0.63099421	0.05920405	0.11555093
0.67752184	0.5675856	0.12050739
0.13913979	0.33718816	0.15017519
0.14840275	0.84019298	0.15545749
0.14219511	0.07017436	0.64201947
0.15891233	0.57122227	0.66517363
0.66072114	0.31273311	0.62416363
0.65469806	0.82147297	0.61532772
0.63628282	0.06125549	0.11320265
0.67402279	0.56750894	0.11626509
0.13537125	0.33570455	0.15206976
0.14184593	0.84092697	0.15083677
0.14122567	0.06906536	0.64092762
0.16181405	0.57516241	0.66285504
0.66776978	0.31514213	0.61503269
0.64595293	0.82428828	0.60981733
0.64039546	0.06197014	0.11329725
0.66706517	0.56679361	0.11336663
0.13391695	0.33117091	0.15078074
0.13524557	0.84259075	0.14769057
0.13949304	0.06846979	0.63994932
0.16473485	0.58008573	0.66315571
0.67528808	0.31453275	0.61327972
0.64241396	0.82655922	0.60953028
0.64009133	0.06163654	0.11541221
0.65756026	0.56635423	0.11208467
0.13508791	0.32656425	0.14741582
0.12951217	0.84326231	0.14469027
0.13756715	0.06814725	0.63875581
0.16399001	0.5826978	0.66563347
0.68150918	0.3123455	0.6191796
0.64544214	0.82823495	0.61220304
0.63689732	0.0612539	0.11635405
0.64973219	0.56707409	0.11423618
0.13786506	0.32433752	0.14253552
0.12482001	0.84227939	0.14334086
0.13649681	0.06759599	0.64045997
0.1597682	0.58262052	0.66889506
0.68283206	0.31130164	0.62610774
0.65235333	0.82895894	0.61612354
0.63317183	0.06144352	0.11511033
0.64510088	0.57072053	0.11880622
0.13981787	0.32421728	0.13807165
0.12235714	0.83938462	0.14198357
0.13725841	0.06803667	0.64255734
0.15386848	0.58079219	0.67242607
0.67747737	0.31131	0.62968401
0.65852391	0.8290654	0.62057277
0.63037865	0.0624835	0.11354892
0.64168283	0.57607151	0.12284273
0.14032828	0.32505924	0.13588947
0.12386437	0.83607927	0.1386473
0.13828805	0.06924384	0.64491342
0.14686683	0.57858162	0.67474912
0.66915726	0.31319822	0.62949454
0.65982112	0.82897265	0.62465411
0.63104594	0.06374903	0.11272669
0.64202669	0.58099614	0.12508521
0.13897541	0.3251876	0.13430614
0.12847662	0.83414063	0.13574737
0.13576769	0.07042946	0.64759721
0.14293169	0.57771345	0.67447798
0.66011341	0.31608905	0.6280796
0.65474412	0.82873125	0.62890091
0.6354268	0.06447496	0.1139875
0.64361127	0.58383969	0.12373047
0.1363102	0.32350994	0.13356429
0.13322797	0.83429403	0.13346628
0.13158647	0.07085841	0.64858699
0.14323603	0.57711008	0.66959463
0.65183958	0.31923312	0.62969084
0.64681238	0.82834414	0.63337819
0.64097925	0.06438923	0.11612499
0.64408157	0.58343972	0.12214938
0.13451469	0.32172211	0.13025988
0.13481784	0.83582454	0.13151378
0.12898339	0.07014504	0.64785357
0.14307564	0.57598183	0.66028377
0.64366301	0.32208959	0.63605596
0.63970538	0.82805732	0.63748649
0.64490617	0.0637108	0.11705011
0.64587472	0.58073672	0.12389676
0.1342254	0.31998953	0.12545165
0.13125235	0.83674662	0.13107954
0.1294048	0.06831531	0.6450768
0.14083713	0.57389557	0.64882281
0.63622915	0.32347561	0.6437323
0.63707593	0.82830587	0.64258957
0.6445184	0.06378371	0.11803352
0.64792233	0.5775565	0.12765272
0.13533903	0.31825286	0.12432663
0.12436246	0.83531577	0.13017258
0.134449	0.06652406	0.64259973
0.13607188	0.57148702	0.63718404
0.6334613	0.32478472	0.64780671
0.63880226	0.82910895	0.64862919
0.64152479	0.06562943	0.11865575
0.64791972	0.57531653	0.13339702
0.13726551	0.3175452	0.12726474
0.11805869	0.83183752	0.12859368
0.14160651	0.06601562	0.64424138
0.12940495	0.57161694	0.62918946
0.63309967	0.32566893	0.64493385
0.64073262	0.83114254	0.65358071
0.63912148	0.06902477	0.11896681
0.64379528	0.57537937	0.13764112
0.13821101	0.31711305	0.13432975
0.1150991	0.82722871	0.12663385
0.14646581	0.06636453	0.64889757
0.12255366	0.57552868	0.62565694
0.63330432	0.32409038	0.63566161
0.64004783	0.83359032	0.65709804
0.63794232	0.07264912	0.12227778
0.63322433	0.57656661	0.13748034
0.13751577	0.3163714	0.14192047
0.11798782	0.82367858	0.12238531
0.14572351	0.06641256	0.65408017
0.11558992	0.58116443	0.6240647
0.63347759	0.32173385	0.627188
0.63580289	0.83482691	0.65867809
0.64043449	0.07470844	0.12689701
0.62165128	0.57828026	0.13449098
0.13608156	0.31548131	0.14429581
0.12405613	0.82320982	0.11834707
0.13846195	0.06493833	0.65431266
0.11081692	0.58619514	0.62565241
0.63127401	0.31942303	0.62702911
0.63062633	0.8354876	0.65847401
0.64349828	0.07465001	0.1312427
0.61299585	0.57992448	0.13198547
0.13405684	0.31445665	0.13977081
0.1276768	0.82541582	0.11517168
0.13035963	0.06183379	0.64284939
0.10867196	0.58817971	0.62951062
0.62706127	0.31731308	0.63538368
0.62821119	0.83627028	0.65795745
0.64433077	0.07355763	0.13571709
0.60979049	0.58035321	0.13192081
0.13114824	0.31432065	0.13128663
0.12844783	0.82846649	0.11366794
0.12382924	0.05816086	0.63041971
0.10751117	0.58460085	0.63002691
0.6225064	0.31798994	0.64745052
0.62706357	0.83717022	0.65879231
0.64432275	0.0710394	0.13956607
0.61354032	0.58012421	0.13579344
0.12404765	0.31521848	0.12285696
0.1275386	0.82943742	0.11655135
0.11852605	0.05494464	0.62427348
0.10813918	0.57833753	0.62417498
0.61671768	0.32123426	0.65685722
0.62528094	0.83819525	0.66130313
0.64343894	0.06701599	0.14393321
0.61780345	0.57959635	0.14141503
0.11313369	0.31703475	0.11711392
0.12530604	0.8276148	0.12091409
0.11411269	0.05367733	0.62026269
0.11032328	0.57160069	0.61597696
0.61087508	0.32557756	0.6591058
0.62100798	0.83954697	0.66337496
0.6438214	0.06284193	0.14889818
0.61864476	0.57787132	0.14427733
0.10121243	0.31907259	0.11282153
0.12265016	0.82567123	0.12434824
0.10930236	0.05520895	0.61940103
0.11215058	0.56564114	0.61047296
0.6064378	0.33070284	0.65590589
0.61185106	0.84091645	0.66185427
0.64627137	0.05979668	0.15074556
0.61585112	0.57523126	0.14347897
0.08942631	0.31964436	0.10890823
0.11958185	0.82447697	0.12618301
0.10700289	0.05808241	0.61825606
0.11102771	0.56157131	0.61059225
0.60393896	0.33435583	0.65003421
0.60263324	0.84217571	0.65666072
0.64908643	0.05862789	0.14849777
0.61051794	0.57219995	0.13836215
0.0831148	0.31902975	0.10451683
0.11625886	0.82479649	0.12166453
0.10964669	0.06059748	0.61274448
0.10454713	0.55855799	0.61486403
0.60463982	0.33500569	0.64795501
0.59655566	0.84367974	0.64875511
0.65176032	0.05927578	0.14438133
0.60663295	0.56935692	0.13278742
0.08294859	0.31816711	0.09771891
0.11098966	0.82697063	0.11218642
0.11469718	0.06120147	0.60821583
0.09354967	0.55753078	0.61991608
0.60832176	0.33367399	0.65044167
0.59447811	0.84512201	0.64068104
0.65281595	0.06109456	0.14131222
0.607022	0.56777485	0.12888629
0.08561876	0.31715508	0.09041209
0.10343072	0.8292197	0.10061475
0.12019604	0.06087332	0.60892873
0.08243758	0.55941731	0.62199201
0.61349645	0.33045293	0.65113883
0.59716931	0.84605815	0.63851333
0.65046651	0.0627204	0.14409466
0.60890508	0.56821516	0.12805997
0.09013764	0.31673337	0.08451734
0.0956293	0.83138137	0.08861742
0.12316368	0.06201053	0.61513366
0.07389232	0.5629424	0.62063614
0.61861717	0.32644309	0.64892985
0.60025849	0.84522323	0.64230219
0.64600477	0.06358603	0.14610815
0.60909954	0.57047591	0.13312794
0.09542679	0.31722968	0.08118714
0.09069147	0.83345005	0.08705363
0.12157514	0.06483407	0.62452095
0.06962917	0.56776813	0.61778278
0.6214923	0.32366912	0.64466847
0.60305428	0.84170618	0.64877098
0.64198164	0.06401314	0.14208837
0.60924963	0.57368485	0.13581179
0.10087719	0.3169503	0.08194556
0.09130221	0.83494387	0.09223981
0.1141852	0.06666285	0.63102164
0.07016181	0.57083346	0.61641933
0.61921557	0.32293058	0.64245309
0.60558986	0.83643256	0.65330124
0.63771023	0.06475394	0.13685402
0.61037222	0.57663321	0.13309287
0.10516238	0.31524444	0.08460961
0.09871841	0.83510558	0.09753975
0.10099365	0.06547317	0.63227803
0.0734109	0.57002165	0.61711736
0.61017497	0.32433375	0.64706257
0.60755105	0.83175646	0.65473349
0.63415102	0.06620202	0.13188793
0.61336037	0.5781791	0.12610015
0.10693073	0.31328765	0.08808247
0.10895242	0.83065501	0.10235783
0.08955808	0.06162302	0.62837492
0.07841194	0.56773344	0.61810383
0.59728715	0.32755434	0.6541364
0.60904349	0.83162418	0.65309397
0.63012981	0.06683319	0.1316003
0.61746657	0.57748969	0.11697346
0.10582637	0.31023999	0.09201431
0.11579516	0.82231111	0.10441995
0.08530205	0.0568172	0.62199868
0.08350382	0.56631276	0.61924975
0.5873548	0.33100238	0.65627185
0.6084798	0.8341258	0.64486499
0.625897	0.06657243	0.13513238
0.62074653	0.57612411	0.1108341
0.10366905	0.30684186	0.09531099
0.1204138	0.81303236	0.1039158
0.08712808	0.05320191	0.61738354
0.08607827	0.56885604	0.6196401
0.58549697	0.33320848	0.65671771
0.60443601	0.83661305	0.6306482
0.6243833	0.06603648	0.1387668
0.62202406	0.57490495	0.10991287
0.10395217	0.30401349	0.09991126
0.12388125	0.80620501	0.10108026
0.09336639	0.05199879	0.61581057
0.08493061	0.57391916	0.61767618
0.58883194	0.33373108	0.65671905
0.60049864	0.83809534	0.61781567
0.62416796	0.06617539	0.1415181
0.62096397	0.57428361	0.11592541
0.1074744	0.30190158	0.10553262
0.12414903	0.80520876	0.09485268
0.09970865	0.05401817	0.61685678
0.08141723	0.57695042	0.61222622
0.59141498	0.33260015	0.65354249
0.59980003	0.83939138	0.61055658
0.62620655	0.06795037	0.14295733
0.61894299	0.57527989	0.12864348
0.11516842	0.30171261	0.10961832
0.12342544	0.80779781	0.08701985
0.10440066	0.05852496	0.61909058
0.07798362	0.5762036	0.6036815
0.59038391	0.33056616	0.64840459
0.60341407	0.84060687	0.61323559
0.62831144	0.07106438	0.14252712
0.61901704	0.57708113	0.13977053
0.12414119	0.30190541	0.11325252
0.12130557	0.8128507	0.07994994
0.10647659	0.06245953	0.62038128
0.0775203	0.57301195	0.59573993
0.58454723	0.32837822	0.64318775
0.61344986	0.84057303	0.6243795
0.62829732	0.07365261	0.14103976
0.62136046	0.57930484	0.14705579
0.1295549	0.30148925	0.11678225
0.11798458	0.81881686	0.07439313
0.10581358	0.06498532	0.6207949
0.08194938	0.56876159	0.59097624
0.5804513	0.32605871	0.63886062
0.62426217	0.83998751	0.6371247
0.6282885	0.07506586	0.13847229
0.62362979	0.58209999	0.14887779
0.13080011	0.30066264	0.1183494
0.11818933	0.82323155	0.07359787
0.10577026	0.0658259	0.62157741
0.09012225	0.56650505	0.59052958
0.58194692	0.32558171	0.63565281
0.62861438	0.83918693	0.64812027
0.6296272	0.07523413	0.13581247
0.62643141	0.5844396	0.1455507
0.12781563	0.29988498	0.11766269
0.12159058	0.82531533	0.07916264
0.10515389	0.06500874	0.62244569
0.09989299	0.56669736	0.59483884
0.58938303	0.32693315	0.63507618
0.62746615	0.83867574	0.65073006
0.63140647	0.07437969	0.13522977
0.62831997	0.58671256	0.13934769
0.12175445	0.29996074	0.11705341
0.12733225	0.8244544	0.09035744
0.10399178	0.06287304	0.62386469
0.10657418	0.56709847	0.6005696
0.601731	0.328088	0.63617839
0.62384839	0.8391246	0.6432294
0.63385267	0.07376154	0.13777495
0.62781682	0.58812536	0.13066633
0.11821648	0.30122656	0.12009862
0.1340212	0.82025927	0.10350442
0.10429946	0.0592497	0.62510463
0.10834017	0.56733132	0.60597304
0.61430101	0.32853171	0.63785487
0.62062838	0.84042089	0.63452132
0.63509232	0.07354943	0.14328114
0.6268576	0.58697945	0.11973002
0.11826798	0.30430239	0.12632132
0.13798391	0.81536011	0.11231268
0.10441984	0.05449223	0.62650038
0.10905648	0.56686272	0.61293503
0.62327728	0.3279528	0.64120844
0.62112695	0.84226504	0.62825911
0.6325549	0.07235169	0.14925534
0.62729413	0.58445554	0.11005417
0.12119436	0.30990569	0.13173018
0.13823937	0.81206434	0.11465556
0.10552577	0.0498992	0.63003073
0.11040397	0.56602238	0.62074331
0.62730615	0.32763049	0.6435649
0.62365541	0.84342387	0.62718579
0.62896445	0.06987178	0.151385
0.63007071	0.58106655	0.10585582
0.12507097	0.31611837	0.13347047
0.13647743	0.81174184	0.11557435
0.1073804	0.0472252	0.63367258
0.11446761	0.56652738	0.62701371
0.62966513	0.32847681	0.64491935
0.62765259	0.84225394	0.63148533
0.62607954	0.0664474	0.15020267
0.63358709	0.57765502	0.10635363
0.12539797	0.32055687	0.13147297
0.13290396	0.81524105	0.11491645
0.11045441	0.04767895	0.63822485
0.11923151	0.56715661	0.63114283
0.63370047	0.32999634	0.64705979
0.6320893	0.83864048	0.63670179
0.62608028	0.06316988	0.14706188
0.63626216	0.57606565	0.11013918
0.12535768	0.32182568	0.12765361
0.13050662	0.82136775	0.11399715
0.11437878	0.05075308	0.64405904
0.12363116	0.56827531	0.63290731
0.63946024	0.33144306	0.64762711
0.63518891	0.83410152	0.64228641
0.62912988	0.06179278	0.14140784
0.63807124	0.57598311	0.11388479
0.12782302	0.32014725	0.12411679
0.12891805	0.82783977	0.11518103
0.11560183	0.05527907	0.64662902
0.127857	0.57055668	0.63283256
0.64444025	0.33109109	0.64732657
0.63990404	0.83132098	0.64637164
0.63375977	0.06287032	0.13637664
0.63799872	0.5768094	0.11614391
0.12822177	0.3175285	0.12166628
0.12694226	0.83243077	0.11819085
0.1150205	0.06015872	0.64740863
0.13020746	0.57233532	0.63241607
0.64834156	0.32804422	0.6472125
0.64618172	0.83184592	0.64683445
0.6395382	0.06518055	0.13215776
0.63563888	0.57843421	0.11622045
0.1275139	0.31641812	0.12011178
0.1271575	0.83398012	0.12442365
0.1158356	0.06341096	0.648315
0.13227313	0.57434781	0.63263913
0.650781	0.32215195	0.64819365
0.65293106	0.83331878	0.64495962
0.64322438	0.06648573	0.12637862
0.63438448	0.57853184	0.11310455
0.12399333	0.31728838	0.11993308
0.12944868	0.83451714	0.132048
0.11968819	0.06480555	0.64846334
0.13539014	0.57619245	0.63470047
0.65056717	0.31440023	0.64986247
0.65969121	0.83388693	0.64065342
0.64395734	0.06482274	0.12232612
0.63647522	0.57678969	0.1103586
0.11615145	0.31902109	0.12085808
0.13452014	0.83518394	0.14045129
0.12918125	0.06545232	0.64814506
0.13821443	0.57753942	0.64053915
0.65174871	0.3071656	0.64828323
0.66223204	0.83177957	0.63573331
0.6423125	0.06057509	0.12184159
0.64216274	0.57305035	0.11251284
0.10802874	0.32057087	0.12437087
0.14134293	0.83573001	0.14949272
0.14029788	0.06659263	0.64767608
0.14243016	0.57927078	0.64835974
0.65639928	0.30358278	0.64405417
0.66158565	0.8262349	0.63208074
0.63820731	0.05561013	0.12361892
0.64938872	0.56748662	0.11908154
0.10245688	0.32178195	0.13101201
0.1431074	0.83579128	0.15644074
0.14653778	0.06867107	0.64866579
0.14657898	0.58057633	0.65521854
0.66211585	0.30305395	0.63905437
0.65969396	0.82101156	0.62943863
0.63459384	0.05133849	0.12587495
0.65433896	0.56373852	0.12612951
0.10382629	0.32333802	0.13811035
0.14239505	0.83468094	0.16054474
0.14699505	0.07074982	0.65196563
0.14873234	0.58119227	0.66088842
0.66477528	0.30505299	0.63259155
0.65680328	0.81704945	0.62921887
0.63307918	0.04944092	0.12578587
0.65520293	0.56249686	0.13068898
0.11436082	0.32533898	0.14384266
0.14083099	0.83266179	0.16132947
0.14357549	0.07284267	0.65477001
0.15247583	0.58103132	0.66379399
0.6638163	0.30746856	0.62773227
0.65672274	0.81523402	0.63152058
0.63185431	0.05066276	0.12432676
0.65423761	0.56250605	0.13120572
0.12905444	0.32752305	0.1445107
0.13810185	0.83199138	0.15832471
0.13999896	0.07470388	0.65603879
0.15799604	0.58025574	0.66343731
0.66029936	0.30716465	0.6244117
0.65887694	0.81438748	0.63354204
0.63302426	0.05372671	0.12173528
0.65327099	0.56228511	0.13059378
0.14268217	0.32973732	0.13946652
0.13600721	0.83392875	0.15615302
0.14129009	0.07545311	0.65413461
0.16640088	0.58173203	0.66184571
0.65852021	0.30428793	0.61911818
0.66271597	0.81230373	0.63377132
0.63700954	0.05713332	0.11591102
0.65365017	0.55983599	0.13322196
0.1499672	0.33081035	0.13395291
0.13221671	0.83814934	0.1570672
0.14759137	0.07586863	0.64869119
0.17917186	0.58554251	0.66029039
0.66175999	0.29980698	0.61399261
0.66799803	0.80998413	0.63128978
0.642409	0.05776162	0.10860856
0.6564004	0.55751514	0.13650407
0.14863527	0.33057919	0.13463057
0.12902072	0.84305456	0.15952507
0.15778605	0.07591862	0.64527282
0.19040072	0.58931011	0.66034254
0.66809232	0.29563893	0.61152506
0.66982053	0.80910044	0.62841054
0.65071926	0.05573565	0.10388107
0.66050312	0.55682166	0.14132061
0.14538008	0.32989589	0.1463484
0.12990189	0.84579139	0.16402102
0.16762511	0.07497022	0.64616825
0.19754924	0.59194092	0.66308727
0.67514825	0.29347213	0.61324062
0.66949654	0.80973555	0.62868283
0.65870854	0.05456532	0.10193195
0.66407328	0.55910292	0.14536333
0.14265086	0.32997796	0.16209927
0.13264032	0.84567993	0.16803649
0.17159235	0.07421701	0.65086435
0.19973112	0.59154553	0.66939657
0.67922103	0.29257608	0.61881294
0.66668576	0.81221742	0.63149688
0.66180456	0.05522608	0.1041002
0.66630162	0.56438476	0.14467726
0.14225711	0.33253135	0.17238049
0.13670507	0.84349489	0.16821526
0.17352257	0.07332042	0.6587789
0.19353069	0.58867448	0.67955363
0.67898883	0.29372139	0.62545408
0.66121433	0.8152448	0.63513517
0.65634154	0.05690785	0.10695568
0.66722396	0.56936211	0.14231337
0.14379197	0.33672082	0.17429555
0.1414769	0.84247503	0.16537725
0.17488107	0.07200268	0.6654538
0.18309111	0.58483427	0.6902524
0.67656646	0.29782032	0.63077128
0.65863572	0.81613571	0.63864007
0.6425846	0.05947217	0.10430916
0.66782854	0.57185376	0.14061083
0.14569044	0.34095929	0.16845938
0.14290023	0.84443698	0.16120063
0.17546687	0.07028227	0.66912624
0.17229623	0.58065687	0.69817497
0.67722672	0.30266025	0.63172786
0.65905635	0.81500293	0.64101978
0.62866096	0.06168803	0.09615348
0.66849678	0.5738494	0.14159453
0.15122059	0.34363501	0.15843655
0.14022262	0.84885192	0.15692643
0.1770852	0.06822324	0.66578048
0.16270768	0.5776451	0.70456308
0.68509913	0.30947535	0.62827488
0.65969227	0.81202	0.64326377
0.62031087	0.06287856	0.08165651
0.66583763	0.57561936	0.14414362
0.15982541	0.34444483	0.15042127
0.13471153	0.85276936	0.15361238
0.17323723	0.06755706	0.65820324
0.15835456	0.57585536	0.70785972
0.69667785	0.31484357	0.62427589
0.66068045	0.80904587	0.64389014
0.61748656	0.06328246	0.06793705
0.65944191	0.57733487	0.14312201
0.16724756	0.34427664	0.14735423
0.12798134	0.85264418	0.15213869
0.16225025	0.06728139	0.65289992
0.15594244	0.57592577	0.70635191
0.70627466	0.31653469	0.62164933
0.65904635	0.80915274	0.64345878
0.62250462	0.06306003	0.06379199
0.65119182	0.57867199	0.13781697
0.17200617	0.34382009	0.1479214
0.12429149	0.84979649	0.15581286
0.14939173	0.06596661	0.65031236
0.15572006	0.57814439	0.70074045
0.7087223	0.3158878	0.6252411
0.65523549	0.81187773	0.64345267
0.63239394	0.06318109	0.06648407
0.64471805	0.57743813	0.12979186
0.17135404	0.34324786	0.15022661
0.12451744	0.84768366	0.1629195
0.13768805	0.06420556	0.64863166
0.15826358	0.57977711	0.69326803
0.70311993	0.31227534	0.63304974
0.65249416	0.81785203	0.64102993
0.64390663	0.0640102	0.07373523
0.642316	0.57535997	0.11960998
0.16737711	0.34258833	0.1529145
0.12745295	0.84819536	0.16807535
0.1313982	0.06157275	0.64705462
0.15864532	0.57943964	0.68682991
0.69329736	0.3077717	0.63833645
0.65137765	0.82601827	0.63649833
0.65534539	0.06467408	0.08335075
0.6455117	0.574275	0.11600401
0.16040289	0.34089075	0.1557959
0.13275804	0.85107163	0.16980239
0.13265521	0.05961799	0.64259919
0.15876814	0.57751795	0.68278615
0.6827607	0.30549027	0.64017406
0.65099068	0.83304167	0.63308116
0.66290239	0.06464988	0.08693878
0.65338087	0.57425424	0.11916315
0.14803798	0.33720083	0.15839791
0.13486535	0.85376437	0.16641166
0.13901348	0.06045533	0.63504765
0.160025	0.5747998	0.6791262
0.67704456	0.30546041	0.63791006
0.65093125	0.83569557	0.63058672
0.66673204	0.06400484	0.09136029
0.66095337	0.57514385	0.1265133
0.13591934	0.33308732	0.15948266
0.13389184	0.8536817	0.15890883
0.14822169	0.0634708	0.62996136
0.15921144	0.57297692	0.67476039
0.67506289	0.30893092	0.63493922
0.65162979	0.83413633	0.63165485
0.66840651	0.06356511	0.09896493
0.66428597	0.57610294	0.13488387
0.13030548	0.32897605	0.16007366
0.13209703	0.84982604	0.14949381
0.15523097	0.06892911	0.62823972
0.15442956	0.57308797	0.66806129
0.6739304	0.31588953	0.63528964
0.65225962	0.83095934	0.63572428
0.66622704	0.06420387	0.10611528
0.6626439	0.5770499	0.13990883
0.1308647	0.32556107	0.15673124
0.12775456	0.84423432	0.14067497
0.15487503	0.07308237	0.63103919
0.14464985	0.57407018	0.65827154
0.66965671	0.32228489	0.63664275
0.65187304	0.82873668	0.63850699
0.66041789	0.06645983	0.11617245
0.65834669	0.5783337	0.13983945
0.13768332	0.32490813	0.14760795
0.1247837	0.83918977	0.13603039
0.15094666	0.07254452	0.63725935
0.13084068	0.57496852	0.64820145
0.65756166	0.32672288	0.63852284
0.65164701	0.8279837	0.64217161
0.65213781	0.06963863	0.12216394
0.65436541	0.57995378	0.13710865
0.14729352	0.32508348	0.13614114
0.12465169	0.83636524	0.13540582
0.14629974	0.07017684	0.64107842
0.12061464	0.5752679	0.63853926
0.64384119	0.32691678	0.64023019
0.65233791	0.82911527	0.64394307
0.64509537	0.07275463	0.12404097
0.65236385	0.58141488	0.13285213
0.15518288	0.32449802	0.12538635
0.12566907	0.83544418	0.13641297
0.14359703	0.0668897	0.64180461
0.1148406	0.57611921	0.62959929
0.63749404	0.32412325	0.63916602
0.65288152	0.83187147	0.64235938
0.6443654	0.07428473	0.12522386
0.6525704	0.58188318	0.13012966
0.15809417	0.32348588	0.11907194
0.12841568	0.83468708	0.13814375
0.14296473	0.06503087	0.63964787
0.11419127	0.57904613	0.62347425
0.64055674	0.32245663	0.63805108
0.65215241	0.83440974	0.63998873
0.64640688	0.07330712	0.12571003
0.65415918	0.58182602	0.13040316
0.15454301	0.32192628	0.11876111
0.13068057	0.83258012	0.13769467
0.1400959	0.066406	0.6343454
0.1180467	0.58259828	0.61983361
0.64668819	0.32224665	0.63880246
0.64930268	0.8367852	0.63644897
0.64976901	0.07087364	0.12757992
0.65456584	0.58175154	0.12998458
0.14865669	0.32196263	0.12156753
0.13173451	0.82909754	0.13366267
0.13549816	0.06783034	0.62990451
0.12391071	0.58604306	0.61803702
0.64738897	0.32415957	0.63990905
0.64534462	0.83872472	0.63444439
0.65421709	0.06860371	0.13136432
0.65089128	0.58090767	0.12900415
0.14251707	0.32339051	0.12301081
0.13162179	0.82641941	0.12710992
0.12938674	0.068338	0.62616447
0.12946828	0.58753741	0.61766286
0.64104974	0.32754782	0.6407224
0.64176027	0.83973954	0.63481201
0.65548262	0.06900546	0.13418559
0.64395283	0.57827092	0.12742285
0.13626854	0.32381748	0.12149034
0.12907105	0.8246305	0.11933072
0.12241091	0.06830295	0.62312876
0.13227571	0.5860149	0.61710106
0.63131787	0.32950292	0.6394644
0.63972552	0.83985339	0.63601629
0.65453341	0.07181122	0.13598808
0.63565376	0.57424667	0.12320522
0.13055978	0.32220417	0.11625846
0.1252366	0.82447547	0.11525146
0.11845275	0.06686704	0.6239162
0.13044155	0.5823883	0.61601518
0.62161093	0.33014865	0.63722891
0.64084181	0.83901553	0.63851651
0.65081833	0.07403552	0.13515171
0.62913318	0.57062829	0.12080113
0.12552319	0.31724533	0.11034077
0.12144806	0.82579215	0.11550811
0.11813253	0.06515066	0.62849852
0.12636628	0.57768724	0.6140122
0.6141923	0.33009388	0.63960743
0.64039431	0.83743058	0.6417611
0.64294013	0.07394706	0.1330001
0.62592098	0.56939766	0.11995147
0.12097456	0.31099968	0.10822564
0.11777954	0.82647563	0.1154789
0.11914713	0.06429339	0.63565163
0.12165732	0.57327078	0.612103
0.61143254	0.32903155	0.64669757
0.63555069	0.83590374	0.64521489
0.63667363	0.07095656	0.13430873
0.62524115	0.57124662	0.1190307
0.11753607	0.30742297	0.11191564
0.11697678	0.82632297	0.11367309
0.11815678	0.06290373	0.64209912
0.11791023	0.57161085	0.61365592
0.61077069	0.32900703	0.65632264
0.62965371	0.83499938	0.64816308
0.63211581	0.06541132	0.13844626
0.62607766	0.57588375	0.11864573
0.1157479	0.30722258	0.11764923
0.12016447	0.82555261	0.11102544
0.11306724	0.06167373	0.64307912
0.11664723	0.57215362	0.61727788
0.61033559	0.32901321	0.66458931
0.62200714	0.83579407	0.64802598
0.62920558	0.05990735	0.14523803
0.62675253	0.58160029	0.11641485
0.11556146	0.30957072	0.12057999
0.1266333	0.82467446	0.10919261
0.10684902	0.0613378	0.64037433
0.11582493	0.57409199	0.6207727
0.61073471	0.32809902	0.66516746
0.61486164	0.83728567	0.64525813
0.63027913	0.05547763	0.1515196
0.62595031	0.58560669	0.11228522
0.11479657	0.31336145	0.11827941
0.13483961	0.82492916	0.10780373
0.10168875	0.06175738	0.63355525
0.11521218	0.57665106	0.62524574
0.61263811	0.32676867	0.65867528
0.60991718	0.83800391	0.64105575
0.6316722	0.05291945	0.15035047
0.62544755	0.58631509	0.10928901
0.11223923	0.31610767	0.11319533
0.14020428	0.82582876	0.10631244
0.09852491	0.06346147	0.62484337
0.11412593	0.57717413	0.63107237
0.61700138	0.32477638	0.64742356
0.60814449	0.83814268	0.63672109
0.63302281	0.05316523	0.14635986
0.62698864	0.58365124	0.10979235
0.10835361	0.31691748	0.10885532
0.13938224	0.8264762	0.10234348
0.10002092	0.06479816	0.61866161
0.11157042	0.57495325	0.63597064
0.62324308	0.32371956	0.63741472
0.60951713	0.83782367	0.63349396
0.63413596	0.0548477	0.14545739
0.62883515	0.57933794	0.11609119
0.10364564	0.31575526	0.10806423
0.13374148	0.82555993	0.0940815
0.10611768	0.06454422	0.61653434
0.10915024	0.56995828	0.638861
0.62646043	0.32372723	0.63482497
0.61197803	0.83747059	0.63062118
0.63294725	0.05696244	0.14714222
0.62828857	0.5747106	0.12639396
0.09985635	0.31292981	0.11099855
0.12428597	0.82215594	0.08770774
0.11328218	0.0634355	0.62025347
0.10675396	0.56469701	0.63847932
0.62453678	0.32428338	0.63685139
0.61536484	0.8388434	0.62702546
0.63090414	0.05861811	0.15232157
0.62694343	0.5704154	0.13662189
0.09802685	0.30985659	0.11429354
0.11632023	0.81915672	0.08866913
0.1193432	0.06125981	0.6278226
0.10208676	0.56328986	0.632597
0.61843231	0.3254397	0.63929893
0.61887114	0.84133455	0.62177937
0.62761582	0.06012113	0.16019746
0.6239343	0.56762505	0.14532912
0.09707378	0.30668875	0.11374727
0.11211042	0.81858678	0.09644133
0.12241679	0.05851874	0.6320628
0.09716557	0.56510427	0.6238978
0.60977694	0.32632016	0.63798018
0.62166845	0.84216952	0.61642827
0.62191683	0.06351232	0.16643898
0.62147718	0.56632026	0.15050668
0.09592167	0.30387537	0.10909098
0.10971034	0.82035691	0.10740672
0.12231364	0.05594462	0.63430583
0.09246013	0.56824072	0.6157288
0.6045996	0.32645152	0.63262178
0.62359303	0.84091543	0.61262581
0.61370853	0.06903242	0.16735433
0.62214273	0.56644539	0.15267729
0.09383299	0.30324053	0.10340827
0.10912461	0.82324282	0.11529392
0.11967194	0.05369697	0.63275697
0.08871343	0.5709411	0.61048456
0.60157611	0.32554315	0.62713574
0.62267802	0.83877669	0.61386434
0.60296127	0.07288419	0.16272443
0.62518035	0.56761558	0.15221499
0.09029243	0.30477598	0.10140461
0.10857885	0.82442367	0.11617895
0.11510592	0.05247275	0.62878097
0.08787837	0.57169663	0.60870584
0.59906089	0.32325067	0.6252665
0.61883203	0.83665677	0.62311133
0.59264185	0.07390337	0.15636674
0.62903078	0.56956285	0.14611952
0.0871589	0.30818812	0.10570906
0.1066251	0.82155851	0.11057501
0.1089974	0.05166596	0.62560116
0.08807974	0.57094021	0.61101903
0.5969594	0.32051841	0.62875515
0.61629062	0.83610579	0.6328698
0.58930742	0.0717766	0.14905524
0.62930245	0.57217971	0.14152107
0.08648361	0.31291087	0.11253607
0.10648143	0.81691149	0.10290353
0.10291723	0.04982958	0.62307631
0.08902663	0.56933974	0.61646369
0.59264671	0.31970516	0.63665242
0.61857104	0.83734662	0.63901985
0.59528881	0.06608107	0.14004218
0.6262358	0.57311381	0.14254283
0.09053826	0.31563587	0.11804723
0.11006855	0.81224884	0.10104428
0.09866773	0.04869192	0.62295421
0.09166259	0.5671532	0.62293007
0.58783285	0.32196622	0.6429824
0.62481535	0.83917596	0.64223954
0.60823059	0.0602331	0.13169082
0.62291639	0.57045211	0.14367439
0.09793621	0.31577375	0.11934057
0.11671815	0.81025849	0.10417116
0.0970556	0.04899862	0.62607678
0.09289339	0.56469749	0.62734676
0.58491923	0.32467319	0.64448263
0.63171935	0.8399585	0.64214618
0.62272963	0.05691426	0.12579053
0.61971901	0.56727278	0.14316788
0.10554191	0.31431322	0.11749168
0.12215482	0.81234162	0.11013
0.09867297	0.05162682	0.62903983
0.09266798	0.56318013	0.62761729
0.58709338	0.32479072	0.64319715
0.63668093	0.83867606	0.64489494
0.63449982	0.05714785	0.12173406
0.61616419	0.56512119	0.14046602
0.11207053	0.31132798	0.11627775
0.11761381	0.81747576	0.11804447
0.10222744	0.05507044	0.63327882
0.09264792	0.56314711	0.62310927
0.59540135	0.32079682	0.64259098
0.6387636	0.83662805	0.6513237
0.64002021	0.05941315	0.12049202
0.61166611	0.56560379	0.13602741
0.11756743	0.30897366	0.11729808
0.10940748	0.82247197	0.12489652
0.10590517	0.05712673	0.64016271
0.09220577	0.56314353	0.61449961
0.60514058	0.31764373	0.64921536
0.6356181	0.83479651	0.65578061
0.63762807	0.06208562	0.1215622
0.60747964	0.5702751	0.13670661
0.12208726	0.3088488	0.12056039
0.10613501	0.82566086	0.13129926
0.10700245	0.05773293	0.64895298
0.09310313	0.56275517	0.60638748
0.61341161	0.31674681	0.66098733
0.62939493	0.83253173	0.65911346
0.63040439	0.06420698	0.12340804
0.6061874	0.5770826	0.13992323
0.12521847	0.31095447	0.12222923
0.10722719	0.82655767	0.13592606
0.10410374	0.05663329	0.65874044
0.09678124	0.56350498	0.60415029
0.62009142	0.31630322	0.66865691
0.62419097	0.83000456	0.65965549
0.62489143	0.06509914	0.12564328
0.60878403	0.5830037	0.14463853
0.12570721	0.31469336	0.12093934
0.1137363	0.82666297	0.13307031
0.10101099	0.05689094	0.66630872
0.1026529	0.56620884	0.61111908
0.62612905	0.31658409	0.66999514
0.61993412	0.8284624	0.65917224
0.62839686	0.06494506	0.1257255
0.61293472	0.5854798	0.14924208
0.12278475	0.31798094	0.11879777
0.12155749	0.82694308	0.12558524
0.10024922	0.0599352	0.66468213
0.10888029	0.5703989	0.62542189
0.63198222	0.31723834	0.66341968
0.61767052	0.82792995	0.66057282
0.63699562	0.06459888	0.1231978
0.61618563	0.58341326	0.14539431
0.11844142	0.31834961	0.11726191
0.12599977	0.8277721	0.11785351
0.1024467	0.06354208	0.65619737
0.11335894	0.57413695	0.63945739
0.63578942	0.31833491	0.65090416
0.6201077	0.82698644	0.66127632
0.64536167	0.0638637	0.11902531
0.61855662	0.57949563	0.13314184
0.11487564	0.31685733	0.11809714
0.12966988	0.82863997	0.11289034
0.10723694	0.06469718	0.64575605
0.11572679	0.57613623	0.64724325
0.63615281	0.31988378	0.63637141
0.62563056	0.82586521	0.66033871
0.6495446	0.06238736	0.11468351
0.6218073	0.57597431	0.11814748
0.11462571	0.31540676	0.12297328
0.13251944	0.82732934	0.11378046
0.11279644	0.06344267	0.63686624
0.11707597	0.57608241	0.64600445
0.63494612	0.3204352	0.62464899
0.6344247	0.82530257	0.65818849
0.64922035	0.06011163	0.11137917
0.62580425	0.57392442	0.10591683
0.11922857	0.31424248	0.12882607
0.13536511	0.82597015	0.11712386
0.11891428	0.06112834	0.63319202
0.11836334	0.57426679	0.64015663
0.63355175	0.31985123	0.61957316
0.64287056	0.82607005	0.65364427
0.64769369	0.05767465	0.11048175
0.62945566	0.57345365	0.10384442
0.12581323	0.3141005	0.13326365
0.13840301	0.82619383	0.12306811
0.12531098	0.05944689	0.63525667
0.12084884	0.57227057	0.63496144
0.63402549	0.31843001	0.62115456
0.64739322	0.82880107	0.64795136
0.64648423	0.05638246	0.11347581
0.63502191	0.57351517	0.10978921
0.12977349	0.31441115	0.13545582
0.13961439	0.82680418	0.13017172
0.13099007	0.05993355	0.63944813
0.12329991	0.57170936	0.63258884
0.63718939	0.31648564	0.62656521
0.64751176	0.83139274	0.64130441
0.64566231	0.05798264	0.12029923
0.6422777	0.57300798	0.11991508
0.12847708	0.31423089	0.13602918
0.14014151	0.82811504	0.13440913
0.13551051	0.06188717	0.64258548
0.12491025	0.57271035	0.63349576
0.64146616	0.31505886	0.63234669
0.64516154	0.83198452	0.63292211
0.64445912	0.06188173	0.12711048
0.64725323	0.57115046	0.13066534
0.12572596	0.31392744	0.1376841
0.13943463	0.82963276	0.13762415
0.13685529	0.06405565	0.64118337
0.1263334	0.57413093	0.63610819
0.64560074	0.314514	0.63677402
0.6425155	0.82992195	0.62528357
0.64121754	0.06568996	0.13116254
0.65180944	0.56779636	0.13790201
0.12502335	0.31415426	0.14087776
0.13650033	0.83035212	0.1387304
0.13566838	0.06446007	0.63682717
0.12850831	0.57540111	0.63850176
0.64818055	0.31501816	0.6397677
0.64129347	0.8257676	0.61891195
0.63798961	0.06723996	0.13407373
0.65660979	0.56521204	0.14132334
0.12584074	0.31613148	0.14279264
0.13372391	0.83021168	0.13695506
0.13324249	0.0626351	0.63366642
0.13249985	0.57619166	0.6412672
0.64889129	0.31658155	0.64193099
0.64108958	0.82155293	0.615261
0.63738375	0.06546054	0.13529958
0.65771873	0.56561795	0.13762424
0.12778947	0.31997007	0.14093583
0.13078174	0.82934559	0.13498288
0.13002872	0.0600315	0.6332379
0.13732038	0.5767432	0.64654216
0.64893721	0.31822809	0.64320097
0.64210193	0.81958308	0.61635313
0.64032476	0.06195513	0.13305033
0.65775113	0.56917505	0.12667023
0.13029628	0.32399749	0.1365919
0.12671527	0.8290148	0.13378736
0.12981614	0.0580458	0.63334284
0.14222564	0.5776949	0.6536759
0.64793663	0.31965512	0.64314698
0.64338103	0.82082003	0.62001008
0.64723893	0.05777747	0.12577704
0.65659584	0.57406834	0.11745
0.13275945	0.32674292	0.13303304
0.12428873	0.83009973	0.13503758
0.13359959	0.05763795	0.63357462
0.14580772	0.57902832	0.66063341
0.645288	0.31939231	0.64144146
0.64403372	0.8245439	0.62654476
0.6535637	0.05387904	0.11534466
0.65216151	0.57656802	0.11556169
0.13603933	0.32634888	0.13320306
0.12314076	0.83232597	0.13950279
0.13868699	0.0589584	0.6344323
0.14595836	0.57968056	0.66427133
0.6438989	0.3159617	0.6393974
0.64599445	0.82896036	0.63318579
0.65570093	0.05175347	0.10739391
0.64610609	0.57509764	0.12042696
0.14083593	0.32323898	0.13700028
0.125483	0.83504356	0.14541149
0.14423126	0.06121912	0.63920043
0.14437854	0.57913982	0.66195087
0.64385309	0.31240886	0.6382555
0.65097235	0.83299199	0.63563105
0.65177086	0.05135082	0.1076907
0.64033672	0.57174133	0.12776809
0.14603605	0.3196376	0.14167037
0.1324164	0.83694822	0.15158857
0.14896861	0.0628976	0.64923754
0.14432761	0.57784128	0.65545632
0.64582394	0.31133112	0.63844584
0.65679612	0.83595414	0.63480132
0.64059505	0.05433314	0.11730922
0.63740781	0.56792132	0.13352856
0.15021216	0.31725681	0.1448955
0.13481415	0.8364846	0.15667002
0.15026991	0.06405925	0.66189527
0.14531091	0.57616244	0.65019162
0.65051489	0.31366872	0.63940427
0.65955531	0.83684768	0.63147214
0.6275079	0.06090565	0.13024946
0.63614672	0.56780903	0.1361415
0.15280021	0.31723492	0.14495783
0.13421476	0.83476258	0.15964176
0.14810825	0.06499491	0.67280281
0.15070942	0.57495989	0.65161106
0.65710078	0.31778176	0.63868619
0.65843884	0.8365774	0.62929662
0.62205256	0.06807125	0.13876479
0.63484419	0.57251394	0.13712934
0.15255187	0.32013507	0.14080196
0.12999119	0.83405598	0.16026701
0.14283412	0.06552331	0.674234
0.15777407	0.57507349	0.65838134
0.66516326	0.32163705	0.63531062
0.65156426	0.83574926	0.63003315
0.6256867	0.07434863	0.14142325
0.6355961	0.57876123	0.14005297
0.14791525	0.32472347	0.13377913
0.12265888	0.83506311	0.15779119
0.13584782	0.06811189	0.66666838
0.16460287	0.5750729	0.66315497
0.67230596	0.32481832	0.63020028
0.6424833	0.83387411	0.63040597
0.63512441	0.07628449	0.1430816
0.64026938	0.58427087	0.14391438
0.14171889	0.32933613	0.12612828
0.12020755	0.83790112	0.14900937
0.1307744	0.07286938	0.65312096
0.17102463	0.57386774	0.66085557
0.6760541	0.32596174	0.62433091
0.6342653	0.83229235	0.63125754
0.64446854	0.07249909	0.14659988
0.646531	0.5843368	0.13999265
0.13639261	0.33165354	0.12135109
0.1217808	0.84109947	0.13598987
0.13057144	0.07724716	0.63993027
0.17377419	0.57232172	0.6543292
0.67697324	0.32427908	0.62090039
0.62814956	0.83085426	0.63141418
0.6471533	0.06645107	0.15158375
0.65134346	0.58005581	0.12601017
0.13230489	0.3309306	0.12220207
0.12445565	0.84283445	0.12375474
0.13469127	0.07942198	0.63374499
0.17071513	0.57114997	0.64608642
0.67575966	0.32151776	0.6223472
0.62556049	0.82886094	0.63448302
0.6445724	0.06078751	0.15566327
0.65230011	0.57607906	0.10810623
0.12984252	0.32965429	0.12672062
0.12897299	0.84357167	0.11997426
0.13871762	0.07822707	0.64023323
0.16509861	0.571912	0.63978103
0.67422424	0.3193984	0.62663029
0.62950229	0.82778267	0.64184616
0.64066504	0.05839259	0.15447912
0.64925035	0.57358871	0.0935497
0.12853316	0.32924612	0.13070151
0.13072851	0.84382154	0.12738436
0.14239939	0.07571051	0.65134986
0.15825862	0.57539333	0.63516099
0.67438059	0.3190071	0.63252844
0.64063957	0.82808637	0.65033475
0.63881427	0.05772337	0.1472514
0.64388306	0.57301135	0.09004236
0.12760792	0.32963614	0.13229066
0.13005791	0.84359327	0.13757731
0.14552422	0.07249345	0.65896836
0.15132471	0.58227688	0.63244973
0.67528959	0.32130023	0.63627243
0.65456072	0.82994054	0.65530456
0.64243154	0.05818847	0.13921508
0.64009092	0.57331007	0.09417907
0.12932593	0.33017479	0.13275183
0.12936932	0.84351195	0.1380416
0.14445496	0.07028185	0.65954983
0.14645392	0.58730513	0.63333291
0.67793477	0.32459171	0.63617946
0.66628819	0.83292195	0.65363358
0.64587339	0.06173961	0.13227036
0.64205627	0.5740212	0.10260578
0.1345875	0.32907414	0.13175804
0.12734192	0.84369029	0.12829316
0.14005648	0.06936951	0.65474322
0.1426184	0.58907425	0.63652517
0.68170598	0.32657795	0.63674586
0.67416868	0.8339075	0.64589522
0.64713292	0.06741311	0.12735633
0.64643794	0.57734544	0.1148733
0.14040117	0.32752351	0.12954926
0.12907447	0.84280169	0.12393824
0.13417488	0.07106158	0.64703424
0.14211934	0.58881135	0.63967739
0.68343281	0.32687256	0.63826451
0.67584436	0.83309769	0.63649188
0.64649399	0.07336858	0.1254479
0.64956498	0.58205659	0.12734484
0.14178533	0.32650535	0.1256322
0.13343487	0.84146833	0.12994029
0.12869634	0.07466648	0.63783426
0.14452001	0.58766642	0.64295119
0.68421352	0.32567018	0.63947004
0.66614526	0.83218448	0.62948697
0.64496148	0.0770541	0.12446719
0.64638622	0.58549106	0.13590766
0.13783433	0.32680632	0.12070885
0.13149064	0.84111793	0.13740216
0.12667977	0.07743771	0.628395
0.14770745	0.58763276	0.64374212
0.68100873	0.32375154	0.63860405
0.65111224	0.83056614	0.62561784
0.64571079	0.07628189	0.12269179
0.64010569	0.58655249	0.13898106
0.13321729	0.32949812	0.11888591
0.12720792	0.84214436	0.13998297
0.13376901	0.0784095	0.62253755
0.15224988	0.58856589	0.6424079
0.67189876	0.32177166	0.63447948
0.63719701	0.8309423	0.62634821
0.64743454	0.07394157	0.11679673
0.63719583	0.58416523	0.13758872
0.12938569	0.33324953	0.1233027
0.12195944	0.84424494	0.1368351
0.14372223	0.07807611	0.62048027
0.15274178	0.58931596	0.64016347
0.66039285	0.3202677	0.63285764
0.63047401	0.83151158	0.63052604
0.64848222	0.07136518	0.10841654
0.63931321	0.58046206	0.13377334
0.12573502	0.33608756	0.12971002
0.1195224	0.8453684	0.13055248
0.15000069	0.07646548	0.62199671
0.14805204	0.58927983	0.6374213
0.6478693	0.31949116	0.63672324
0.63288704	0.83016743	0.63511008
0.6494353	0.06988916	0.10169156
0.6412479	0.5769663	0.13010628
0.12389619	0.33627769	0.13357598
0.1215009	0.84475426	0.12344947
0.15326602	0.07363111	0.62740573
0.14329823	0.58848159	0.63707429
0.63900819	0.31906793	0.64354492
0.63871597	0.83015741	0.63954359
0.65005303	0.06925534	0.09820048
0.64033237	0.57494143	0.1301328
0.1239284	0.33392851	0.1333394
0.12163117	0.84220809	0.11819504
0.15410586	0.07060976	0.63227039
0.13967829	0.58707643	0.63969681
0.63679863	0.31891495	0.65028585
0.6442107	0.83237155	0.6424281
0.6506866	0.06833821	0.09986347
0.63516418	0.57504043	0.13387264
0.12594857	0.33150407	0.12966605
0.12142982	0.83854659	0.1146248
0.1532348	0.06964535	0.63611851
0.13727475	0.58546065	0.64259922
0.63893028	0.31961683	0.65248647
0.64695152	0.83590558	0.6443718
0.65141431	0.06768197	0.10656772
0.62831341	0.57631795	0.13651594
0.13020181	0.32988902	0.12538083
0.1232211	0.83670679	0.11207453
0.14981255	0.0712164	0.6374597
0.13472696	0.58453445	0.643818
0.63935353	0.32093362	0.65072821
0.64617442	0.839447	0.6457649
0.65113895	0.0675116	0.11210829
0.62383579	0.57856232	0.13684357
0.13382289	0.3292466	0.1230197
0.12496479	0.83713935	0.11047638
0.14358529	0.07314612	0.63499124
0.13065966	0.58462079	0.64143652
0.63325571	0.32198642	0.64585308
0.64266742	0.84093749	0.64458849
0.64933307	0.06844062	0.11593232
0.62278307	0.58190971	0.13468423
0.13620777	0.3290607	0.12334287
0.128622	0.83832073	0.11223185
0.1364264	0.07455407	0.63236415
0.12511719	0.58478787	0.63687342
0.62382944	0.32219783	0.6404038
0.63545967	0.84110173	0.64104462
0.64676757	0.07075163	0.11800611
0.62592086	0.58483275	0.1309668
0.13696214	0.32754112	0.12474466
0.13268487	0.83950314	0.11671918
0.13074129	0.07483616	0.6297435
0.11937934	0.58398223	0.63335676
0.61840578	0.3216893	0.63788659
0.6290626	0.84019005	0.63568806
0.64499459	0.07329781	0.1189208
0.63081233	0.58596896	0.12998981
0.1354457	0.3243309	0.12524797
0.13418541	0.83947807	0.1212081
0.12960295	0.07361676	0.62573895
0.11519218	0.58202725	0.63153345
0.62200732	0.32092002	0.63771193
0.62607412	0.83848732	0.6301081
0.64432362	0.07457407	0.12056434
0.63573466	0.58522585	0.13172348
0.13242427	0.32087658	0.12424474
0.13583407	0.83820747	0.12266139
0.1327637	0.07181616	0.62380488
0.11368451	0.57890505	0.6326995
0.63356324	0.32109299	0.63895593
0.62391661	0.83728654	0.62737119
0.64423539	0.07361705	0.12228826
0.63968111	0.58237573	0.13348411
0.1279988	0.31871282	0.12351149
0.13348477	0.83615829	0.11744053
0.13687944	0.06992223	0.6249583
0.11369718	0.57537027	0.63593742
0.64766777	0.32325281	0.64041853
0.6241443	0.83612154	0.62783299
0.64443367	0.07037409	0.12495755
0.64160485	0.57921295	0.1329252
0.12374108	0.31861278	0.12488278
0.12935826	0.83370389	0.11061888
0.13952011	0.06752085	0.62798563
0.11375935	0.57377381	0.63804409
0.65681607	0.32708558	0.64016566
0.62817766	0.8352354	0.63007403
0.64477935	0.06633968	0.12770076
0.64150792	0.57693735	0.1289831
0.12240985	0.32063767	0.12803866
0.12703296	0.83227892	0.10834814
0.13796407	0.06414285	0.63250624
0.11325103	0.57412089	0.63878598
0.65619191	0.33146495	0.63805876
0.63339075	0.83430374	0.63283832
0.64459511	0.06368592	0.1294783
0.640249	0.57582538	0.12478016
0.12230957	0.32316152	0.13097116
0.12375963	0.83089114	0.11279962
0.13143354	0.05978589	0.63548275
0.11017979	0.57495422	0.63796797
0.64843585	0.3352855	0.63690204
0.64006191	0.83200862	0.63386772
0.64302032	0.06272767	0.13098493
0.63717387	0.57601253	0.12194788
0.12297232	0.32374052	0.13135695
0.12126658	0.82904197	0.12138664
0.12200612	0.05626428	0.63553631
0.10567117	0.57480318	0.63744628
0.63416093	0.33581663	0.63931922
0.64638394	0.83040313	0.63159451
0.64127219	0.06412468	0.13297218
0.6343355	0.57633436	0.12040916
0.12486402	0.32104669	0.1283101
0.12044287	0.8276668	0.12924707
0.11197581	0.05516659	0.6335778
0.10209746	0.57341344	0.63709866
0.61837001	0.3329124	0.64322351
0.64934805	0.83067671	0.62748442
0.63793542	0.06750137	0.13635995
0.63294742	0.57680353	0.11974506
0.12494481	0.31629857	0.12176015
0.11957437	0.82524166	0.13145025
0.10477484	0.05656725	0.6302562
0.1011369	0.57110591	0.63474548
0.60491533	0.32821647	0.64385104
0.64706859	0.83263046	0.62474916
0.63222886	0.07035831	0.14052019
0.63464489	0.57753124	0.1187328
0.12331992	0.3120117	0.11393237
0.12187084	0.8218831	0.12683175
0.10160797	0.06004113	0.62833015
0.10339307	0.56824171	0.63044195
0.59847327	0.32310866	0.63734457
0.63982494	0.83530794	0.62787426
0.62675889	0.07080236	0.14249483
0.63997718	0.57747774	0.11752251
0.12224258	0.31006554	0.10831045
0.12508004	0.81972856	0.1215733
0.10047338	0.06269737	0.63105426
0.10835472	0.56648747	0.62522685
0.60008869	0.31905837	0.62816891
0.63242122	0.8362696	0.6352893
0.62154339	0.06839124	0.14131668
0.64642238	0.57624221	0.11836971
0.12090915	0.30949027	0.10656505
0.12650127	0.81822608	0.11987544
0.10210988	0.06154395	0.63859688
0.11438649	0.56575882	0.62174042
0.6076879	0.31709042	0.62404846
0.6282396	0.83495628	0.64217321
0.61820322	0.06435492	0.14307628
0.65391261	0.57344526	0.12237614
0.12111071	0.3090084	0.10969447
0.12749735	0.81677491	0.12328572
0.1068547	0.05669284	0.65107458
0.11779975	0.56494398	0.62233193
0.61701712	0.31601673	0.63033107
0.62699558	0.8332557	0.64563622
0.61808061	0.06008337	0.14939994
0.65876184	0.56942011	0.12798944
0.12364313	0.30706567	0.11519532
0.12469129	0.8159235	0.12894679
0.11319358	0.0498807	0.6650155
0.1175246	0.56360855	0.6263829
0.62439993	0.31571311	0.64298908
0.62996921	0.83053714	0.64555175
0.61820863	0.05683331	0.15941328
0.65395712	0.56698583	0.13521463
0.12513851	0.30334807	0.12038424
0.12002066	0.81557514	0.13276715
0.1177314	0.04402814	0.67425355
0.11728981	0.56162418	0.63084589
0.62493443	0.31574165	0.65120989
0.63525535	0.82685898	0.64578008
0.61775007	0.0548184	0.16970562
0.64302979	0.56676574	0.14108204
0.12448234	0.29978428	0.12347015
0.12094447	0.81557963	0.13270155
0.11586525	0.04161581	0.67763184
0.11916296	0.55989484	0.63371933
0.62134795	0.31475794	0.65251968
0.64045711	0.8229117	0.65008935
0.61651992	0.05497845	0.17387893
0.63052832	0.56688497	0.14389361
0.12075012	0.29788937	0.12218012
0.12404784	0.81531094	0.12904472
0.1116203	0.0418095	0.67487589
0.12123713	0.55995962	0.62922567
0.61681221	0.31257656	0.64604253
0.64451033	0.81996856	0.65698999
0.61419422	0.05563921	0.165569
0.62210089	0.56729599	0.14177309
0.11432062	0.2971165	0.11849407
0.12748683	0.81428407	0.12769155
0.10682009	0.04373772	0.66487395
0.12190622	0.56107385	0.62219145
0.61452868	0.30956667	0.63402956
0.6471478	0.82072619	0.6624515
0.61277941	0.05588861	0.15272355
0.62327284	0.56668032	0.13423055
0.11053194	0.29718359	0.11610313
0.13206662	0.81168868	0.13064305
0.10243108	0.04694832	0.66105102
0.12139779	0.56261901	0.62039084
0.61352845	0.30592412	0.62519448
0.64890603	0.82371449	0.66220313
0.61180068	0.05636174	0.14391831
0.62716288	0.56505055	0.12765257
0.11019574	0.29711268	0.11604656
0.13663291	0.80822818	0.13461312
0.10321748	0.04853203	0.66200831
0.12040004	0.56329166	0.62393921
0.61060374	0.30162817	0.62467129
0.65180975	0.82626976	0.65809038
0.61240398	0.05427822	0.14011732
0.63160984	0.56360937	0.1231365
0.11300236	0.29634408	0.12027103
0.14063276	0.80567443	0.13601253
0.10546111	0.04838348	0.6631405
0.1214465	0.56253202	0.63196742
0.61007157	0.29744384	0.62874653
0.65479976	0.82654192	0.65430529
0.61725794	0.05027922	0.13882245
0.63592696	0.56212005	0.11939502
0.11860741	0.2966704	0.12566897
0.13937219	0.80393343	0.13483311
0.10577063	0.04727626	0.66268268
0.12694732	0.56062012	0.6436221
0.6159843	0.2943723	0.63219222
0.65392681	0.8221783	0.65160069
0.62273373	0.04690409	0.13966198
0.63822635	0.55995834	0.11698029
0.12131799	0.29864477	0.13042127
0.13196071	0.80275321	0.13249487
0.102763	0.04538407	0.65716925
0.13507467	0.55899177	0.65291302
0.62702805	0.29448866	0.63367884
0.6482664	0.81264114	0.64935578
0.62401155	0.04381091	0.14115643
0.63973541	0.55804695	0.11290004
0.11827942	0.30139159	0.13345069
0.12561126	0.80226265	0.12896457
0.09613162	0.04451089	0.65520035
0.14287501	0.55863082	0.65684933
0.64032501	0.29784979	0.63517891
0.64108736	0.80335365	0.64572494
0.62023317	0.04200348	0.14321441
0.64098491	0.5567793	0.10933355
0.11466763	0.30433707	0.13218307
0.1252025	0.8026434	0.12608914
0.09030238	0.0452597	0.6576017
0.14668211	0.56030174	0.65238062
0.64745984	0.30296015	0.63699763
0.63559551	0.7981773	0.64117039
0.61158651	0.04106684	0.14511262
0.64290868	0.55734819	0.11186724
0.1120873	0.30531744	0.12917522
0.12912304	0.80501304	0.12594691
0.08701453	0.0468627	0.65633615
0.144637	0.56281436	0.64334
0.64771794	0.30723655	0.63835822
0.63466537	0.79885984	0.63789728
0.60301281	0.04092585	0.14569253
0.64595035	0.55831508	0.1154765
0.11240773	0.30315938	0.12759974
0.13402059	0.80987363	0.12774013
0.08709455	0.04859919	0.65427302
0.13727333	0.56414206	0.6350111
0.64339591	0.30738254	0.63810629
0.63636706	0.80303765	0.63511699
0.5992994	0.04236723	0.1448297
0.64819567	0.55935439	0.11773524
0.11530096	0.30028314	0.12969319
0.13705637	0.81477807	0.13132567
0.09150074	0.04969588	0.65085888
0.13181476	0.56371821	0.6295087
0.63703445	0.30315969	0.63412739
0.63771726	0.80876226	0.63266558
0.59916108	0.04406856	0.14028908
0.64830048	0.56133459	0.11844975
0.11645121	0.29778664	0.13576741
0.13654445	0.8190324	0.13563396
0.09805514	0.04954328	0.64451975
0.13181927	0.56208125	0.62824479
0.62988438	0.29828376	0.62651433
0.63811134	0.81480047	0.63117025
0.60223602	0.04545928	0.13238993
0.64583717	0.56220712	0.11719991
0.11599245	0.29775983	0.14101227
0.13497977	0.82198299	0.13636501
0.10339071	0.04999812	0.64027789
0.13206864	0.55955327	0.6300253
0.62306041	0.29601512	0.62053723
0.63612174	0.81898825	0.62984961
0.60462951	0.04733052	0.12457152
0.64104833	0.56080725	0.11664632
0.11470261	0.30029651	0.14340506
0.13596962	0.82303186	0.1338616
0.10803381	0.05201458	0.63944186
0.13187393	0.55867987	0.63308578
0.61828998	0.2970605	0.62019209
0.63435466	0.8206907	0.62814614
0.60434614	0.04922568	0.11926074
0.63775303	0.55874772	0.11766694
0.11151209	0.3039056	0.14093061
0.13938276	0.82289435	0.13045329
0.1097457	0.05444666	0.64195974
0.13115709	0.55936582	0.63654075
0.61916504	0.30089539	0.62558629
0.63353002	0.82038933	0.62611695
0.60505163	0.05141342	0.11949675
0.63761746	0.55734478	0.1196713
0.10933664	0.30859757	0.13592783
0.14322679	0.8220803	0.12812625
0.10952515	0.0560801	0.64740512
0.12968326	0.5608382	0.6403581
0.62631851	0.30588049	0.63487503
0.63245088	0.81894722	0.62558365
0.60810767	0.05345097	0.12456997
0.64006997	0.55794996	0.12358742
0.11033507	0.31240085	0.13329627
0.14510824	0.82144762	0.12859678
0.10991235	0.05506508	0.65057709
0.12872892	0.56266441	0.64405748
0.63477847	0.31044975	0.64132869
0.63348682	0.81856192	0.62791636
0.61655688	0.05386233	0.12884287
0.64287618	0.56049277	0.12839985
0.11481701	0.31401037	0.13286043
0.14363791	0.82237282	0.13184597
0.11063384	0.05214675	0.65002463
0.1291684	0.56369461	0.64722486
0.64069446	0.31376215	0.64306121
0.63557377	0.81964033	0.63164417
0.6302982	0.05372299	0.12857467
0.64281347	0.56401869	0.13274325
0.12325951	0.31470849	0.13255444
0.14010655	0.82395505	0.13639668
0.11325888	0.04998519	0.64582357
0.13066667	0.56442841	0.6498102
0.64125483	0.31589369	0.64299342
0.63689019	0.82170888	0.63473541
0.64460634	0.05396525	0.12372555
0.64130481	0.56832094	0.13547823
0.12981758	0.31459583	0.13264646
0.13617961	0.82671978	0.13914498
0.11933808	0.04974241	0.63852119
0.13147261	0.56607957	0.65064546
0.6373537	0.31747265	0.64128792
0.63781341	0.82514116	0.63568481
0.65375228	0.05484382	0.11594292
0.64070581	0.57238537	0.13448071
0.13220946	0.31494047	0.13317257
0.13258416	0.83041405	0.13803531
0.12653554	0.05151845	0.63421153
0.13070686	0.56918251	0.64868755
0.63237416	0.3188076	0.63974007
0.63756598	0.82880311	0.63538812
0.65456484	0.05834462	0.10974949
0.64030359	0.57604855	0.13245362
0.13290589	0.31704446	0.13332644
0.12938065	0.83282714	0.13754599
0.13365118	0.05486453	0.63444624
0.12796886	0.57332946	0.64559338
0.62859368	0.31991329	0.63823657
0.63694207	0.83216921	0.63623693
0.6498139	0.06357563	0.10893763
0.64131383	0.578759	0.13228017
0.1315601	0.32052635	0.13359877
0.12653311	0.83339874	0.1386485
0.13839814	0.05883836	0.6374113
0.12253254	0.57613931	0.64177455
0.62672649	0.32120209	0.63644708
0.63796661	0.83569998	0.63869896
0.6453804	0.06934971	0.1103031
0.64092215	0.57985261	0.13380996
0.13186616	0.3249834	0.13304403
0.12411977	0.83272086	0.13884357
0.13773946	0.06289836	0.64214195
0.11551183	0.576768	0.63915931
0.62623543	0.32147245	0.63642452
0.63993826	0.83881619	0.64289858
0.6451711	0.0744705	0.11120906
0.63616218	0.58031566	0.13598851
0.13425201	0.32893275	0.13175807
0.12151851	0.83215651	0.13744211
0.13550426	0.06682774	0.6430098
0.1095316	0.5770725	0.64093942
0.62638415	0.32147256	0.6397903
0.64221135	0.84085383	0.6467386
0.64538774	0.07705695	0.10980112
0.62979406	0.58136958	0.13578509
0.1357234	0.33184277	0.13059764
0.11895722	0.83326451	0.13450303
0.13364018	0.0705306	0.63823808
0.10660038	0.57766733	0.64605071
0.62958786	0.32280076	0.64379039
0.64296831	0.8408485	0.64826693
0.64697785	0.0776564	0.10558785
0.62550713	0.58291021	0.13182774
0.13683758	0.33367896	0.12912556
0.11882238	0.83632312	0.13029299
0.1331501	0.0727795	0.63334602
0.10737681	0.579984	0.65101332
0.63564128	0.32556963	0.64819796
0.64129443	0.83901912	0.64945308
0.65104349	0.07636683	0.10371396
0.62353284	0.58530226	0.12571903
0.13601412	0.33347196	0.12861137
0.12069339	0.84090671	0.1246218
0.13601159	0.07288544	0.62924411
0.11069693	0.58330834	0.65287363
0.64269715	0.3310164	0.64871193
0.64050504	0.83756503	0.64920608
0.65866733	0.07498105	0.10758113
0.6235714	0.58879604	0.12109401
0.13472647	0.33317746	0.12886676
0.12098674	0.84536141	0.11796117
0.13983006	0.07150705	0.62629637
0.11427753	0.58658364	0.64753955
0.64974735	0.33698051	0.64479205
0.64010899	0.83827003	0.64686719
0.66982116	0.07569787	0.11963528
0.62451436	0.59310258	0.12154745
0.13660978	0.33473263	0.12794197
0.11711225	0.84762052	0.11195981
0.14531215	0.07081994	0.62742201
0.11645899	0.59071069	0.63851778
0.65492054	0.3397847	0.64213327
0.64143083	0.84089573	0.64480479
0.67772155	0.07751937	0.13475192
0.6258323	0.59690345	0.12528904
0.14187705	0.33699974	0.12477991
0.11046671	0.84758564	0.10712034
0.15224976	0.07406093	0.62865181
0.11838769	0.59403283	0.63076528
0.65892939	0.33816031	0.64174229
0.64523739	0.84439924	0.64123122
0.67882326	0.07936514	0.14175828
0.62874449	0.59932453	0.12683399
0.14901864	0.33869431	0.11645272
0.10509431	0.84681	0.10455252
0.15932294	0.08020155	0.62892672
0.12316662	0.595879	0.62817389
0.66197968	0.33477354	0.6429503
0.64847635	0.84703765	0.63568636
0.6736688	0.08152393	0.13852037
0.63300473	0.60155434	0.12441783
0.15586674	0.34021303	0.1052182
0.1039322	0.84648379	0.10609931
0.16698198	0.08719833	0.63004245
0.13087992	0.5968114	0.63114481
0.66251997	0.33289188	0.64542433
0.64999263	0.84767355	0.63139714
0.66333511	0.0842341	0.13098548
0.63741068	0.60274071	0.12160863
0.15891851	0.3413712	0.09800314
0.1075418	0.84897819	0.11123873
0.1736466	0.09248669	0.63020352
0.14076513	0.59699608	0.63408184
0.66212689	0.33453418	0.64860948
0.64818621	0.84683112	0.63072498
0.65439323	0.08728439	0.1255678
0.63779002	0.60187765	0.1204356
0.1594343	0.34278145	0.09733356
0.11176257	0.85267742	0.11705638
0.17774636	0.09385045	0.628834
0.15304796	0.59790069	0.63471669
0.66285744	0.33712927	0.6512871
0.64076422	0.84598569	0.63611526
0.65274267	0.08974837	0.12601936
0.63307636	0.5981434	0.12341926
0.1573765	0.3439744	0.10433518
0.11364339	0.85575659	0.11907016
0.17721631	0.09281418	0.62562821
0.16127187	0.59892526	0.63199712
0.66519744	0.33836815	0.65285423
0.63070889	0.8458572	0.64225782
0.65479118	0.08858876	0.12934907
0.62639581	0.59231546	0.13036456
0.15222915	0.34348334	0.1153054
0.11367426	0.85770206	0.11306701
0.17189568	0.09157675	0.62071826
0.1610049	0.59870583	0.62655824
0.66919622	0.33753801	0.6507912
0.62159822	0.84726029	0.64469978
0.66287378	0.08570996	0.1331391
0.62173387	0.58832829	0.13824801
0.14775111	0.34316164	0.12269407
0.11454559	0.85763905	0.10387502
0.16648173	0.09092044	0.61684222
0.15566718	0.59904419	0.62473537
0.67464101	0.33489919	0.64964768
0.61864546	0.8502169	0.64453343
0.67329471	0.08286748	0.13434936
0.62198269	0.58919759	0.14452354
0.14267624	0.34350115	0.12530011
0.11517686	0.856408	0.09955752
0.16423915	0.09105557	0.61486316
0.14787624	0.59845217	0.62843796
0.68034687	0.33294276	0.64976298
0.62220985	0.85241939	0.64260606
0.67810577	0.0815614	0.13156957
0.62737652	0.59413681	0.1480855
0.13688615	0.34448196	0.12310557
0.11463386	0.85539986	0.10050957
0.16507906	0.09159111	0.61653115
0.14046576	0.59593977	0.63299885
0.68361206	0.33325557	0.65005262
0.62977384	0.85220539	0.64126449
0.67878361	0.08218138	0.12646219
0.63140978	0.59894643	0.14928308
0.13530357	0.34662626	0.11897931
0.11427475	0.85536293	0.10389584
0.16681628	0.0906519	0.62243609
0.1362069	0.59391543	0.63393571
0.68151917	0.33620349	0.65069435
0.63883542	0.85057799	0.64349591
0.67565595	0.08229827	0.12196257
0.63081238	0.60064729	0.14938239
0.13631053	0.34904042	0.1165167
0.11497524	0.85694961	0.10994087
0.16540401	0.08808608	0.62733035
0.1354587	0.59271926	0.62931184
0.67925819	0.33989802	0.64785949
0.64736986	0.84878013	0.64361309
0.66835188	0.08231205	0.12004436
0.6290638	0.5983179	0.14981101
0.13914451	0.35075525	0.11538124
0.11774052	0.85897536	0.11479721
0.16065601	0.08567131	0.6276668
0.13632192	0.59244794	0.62183264
0.67944664	0.34175826	0.64283802
0.65256078	0.84827374	0.63893205
0.66014322	0.08186392	0.1188389
0.62688976	0.59378066	0.15011107
0.14240623	0.35075089	0.11377614
0.12300482	0.85965393	0.11679359
0.15651136	0.08453125	0.62398081
0.13821861	0.59350723	0.61683242
0.67878062	0.34089011	0.63949236
0.65355097	0.8494507	0.63319502
0.65174756	0.08101742	0.1173217
0.62726014	0.58889634	0.15002269
0.14328753	0.34718975	0.11314771
0.12836305	0.85907398	0.11552268
0.15404476	0.08488405	0.6182051
0.14004754	0.5946881	0.61743804
0.67684603	0.3387048	0.63911089
0.65134563	0.85111173	0.62681036
0.64599813	0.08084537	0.11639409
0.6324136	0.58661896	0.14840646
0.1437475	0.34251479	0.11614062
0.13183674	0.85833581	0.11395706
0.15352817	0.0853832	0.61532321
0.14024482	0.59532449	0.62530338
0.6711675	0.33687199	0.6417362
0.64619574	0.85257144	0.62231301
0.64229266	0.0808496	0.11568978
0.63890558	0.58830209	0.14311536
0.14412448	0.33923311	0.12450154
0.13108039	0.85780628	0.11159695
0.15463514	0.08456679	0.6162495
0.13754548	0.59515762	0.6374069
0.66070553	0.33774147	0.64489114
0.64052176	0.85240963	0.62181387
0.63756068	0.08050838	0.1154506
0.64278994	0.59245874	0.13488254
0.14198015	0.33693599	0.13697611
0.12685591	0.85676535	0.10875612
0.15538868	0.08159932	0.61878225
0.13213075	0.59434449	0.64554905
0.65091607	0.34054705	0.64535501
0.63683236	0.85116251	0.62412928
0.63629843	0.07847883	0.11776901
0.64245012	0.59715468	0.12568982
0.13955144	0.33559177	0.1469596
0.12337589	0.85366178	0.10595901
0.15546617	0.07683441	0.62150206
0.1268722	0.59370905	0.64752224
0.6453544	0.3427537	0.64237783
0.63646238	0.85044609	0.62816215
0.64016212	0.07532126	0.12228062
0.64116745	0.59952689	0.11928825
0.13697301	0.33477638	0.14913784
0.12240426	0.84782687	0.10383924
0.15387272	0.0721852	0.62276405
0.12621432	0.59281546	0.64520978
0.64407128	0.34290135	0.63555161
0.64040547	0.84989676	0.62918347
0.64732148	0.07329076	0.12790291
0.64214641	0.59914948	0.12040552
0.13379874	0.3334218	0.14075043
0.12478885	0.84196229	0.10273142
0.15063222	0.06964046	0.62358466
0.13029169	0.59111198	0.64110481
0.64519418	0.3401797	0.62780163
0.64655208	0.84896088	0.62667717
0.6550934	0.07348708	0.13278026
0.64401794	0.59710782	0.1249903
0.13372829	0.33134576	0.12319665
0.12728771	0.8370338	0.10362915
0.14648574	0.07013905	0.62505212
0.13827507	0.58905194	0.63943828
0.64608724	0.33477731	0.62552601
0.65073138	0.84591338	0.62453062
0.65761395	0.07551686	0.13356705
0.6475557	0.59272949	0.12826347
0.13510166	0.32847402	0.10830173
0.12698067	0.83324214	0.108264
0.13924175	0.07244264	0.62676674
0.14550791	0.58602325	0.64016493
0.64619087	0.32920861	0.62747143
0.65115485	0.84084609	0.62420116
0.65381065	0.07782849	0.13206011
0.65156448	0.58752781	0.1279835
0.13687386	0.32547785	0.10454387
0.12403009	0.83129934	0.11615524
0.12953955	0.07456738	0.63176277
0.14665618	0.58281836	0.64119675
0.64436467	0.32582082	0.63012696
0.64592723	0.83643044	0.62970475
0.64588464	0.07808581	0.12988227
0.65265715	0.58370801	0.12295215
0.13738859	0.32287494	0.11086442
0.12019143	0.83106575	0.12471302
0.12034379	0.07461248	0.63939644
0.14157279	0.58045778	0.64092564
0.64010247	0.32466512	0.63125523
0.63661033	0.83329888	0.63934693
0.63766426	0.07602517	0.12728107
0.65153306	0.58175796	0.11576065
0.13249715	0.32076521	0.12147937
0.11816199	0.83123171	0.13090296
0.11348728	0.07241173	0.64555575
0.13460307	0.57880172	0.63839704
0.63351074	0.32313299	0.63239265
0.62718954	0.83120229	0.64635311
0.63278388	0.0725598	0.12546864
0.64873508	0.58030457	0.10961136
0.12283795	0.31878708	0.12843782
0.1194899	0.83099915	0.13270722
0.11272661	0.06904936	0.64855526
0.12997972	0.57839196	0.63533183
0.62407136	0.31955541	0.63817718
0.62004768	0.82958111	0.64912978
0.6312696	0.06838204	0.12346549
0.64479501	0.5781408	0.10643548
0.1125599	0.31618404	0.13100575
0.12374405	0.83031774	0.13034198
0.11680035	0.06608107	0.64867095
0.129868	0.57840174	0.63343074
0.61525076	0.31433223	0.64771793
0.61862688	0.82806047	0.64884692
0.63043527	0.06453896	0.12203463
0.64274484	0.5750314	0.10877811
0.10615619	0.31297778	0.13192184
0.12907015	0.82869149	0.12586146
0.12061415	0.06389336	0.64786541
0.13233091	0.57803357	0.63375422
0.60960438	0.30970112	0.65664993
0.62339452	0.82718633	0.64743615
0.62974647	0.06194726	0.12399212
0.64329604	0.57054011	0.1153486
0.1055722	0.31058495	0.13342244
0.13332799	0.82561135	0.12313351
0.11995391	0.06222464	0.64778588
0.13274077	0.57614009	0.63665026
0.60555483	0.30814086	0.66265303
0.63013576	0.82658428	0.64795379
0.62808586	0.05999884	0.12734081
0.64375477	0.56548593	0.12322322
0.1096514	0.30861738	0.13672406
0.13599263	0.820835	0.12522941
0.11363338	0.06032817	0.64794638
0.12829635	0.57120968	0.63948848
0.6030671	0.30884523	0.66291492
0.63555414	0.82525179	0.65043284
0.62743802	0.05814688	0.13037278
0.64197528	0.56144434	0.13004002
0.11565851	0.3063184	0.13916144
0.1370447	0.81544188	0.13419929
0.10483703	0.05689438	0.64916457
0.11970762	0.56429169	0.63874538
0.60373602	0.31008916	0.6566108
0.63697595	0.82323748	0.65247907
0.62998814	0.05553596	0.13203321
0.63931576	0.55834245	0.132185
0.11896609	0.30398744	0.13893247
0.13738893	0.8102932	0.14638342
0.097015	0.05280773	0.65067093
0.10973988	0.55732927	0.63464034
0.60714246	0.31003379	0.64635232
0.63541281	0.81963487	0.65336665
0.63357873	0.05171682	0.13121177
0.63659382	0.55554564	0.13000779
0.11489946	0.30141765	0.13537106
0.1399772	0.80718135	0.15255353
0.09472465	0.04902517	0.65140312
0.10124601	0.5523636	0.63065278
0.61110461	0.30768445	0.6351207
0.63375783	0.81473553	0.65014741
0.63722122	0.04662596	0.13031924
0.63150922	0.55252954	0.12626521
0.10454334	0.29835248	0.12930706
0.14345416	0.80770448	0.15220663
0.09933768	0.0461364	0.65386661
0.09528795	0.55170503	0.63106366
0.6136741	0.3035664	0.6264111
0.634665	0.81072768	0.64478044
0.63730173	0.04032858	0.12945806
0.62444534	0.54925607	0.12243788
0.09796545	0.29529623	0.12210866
0.14403607	0.80956579	0.14943312
0.10612982	0.04457483	0.65723303
0.0944103	0.552701	0.63604263
0.61288376	0.29934349	0.6250535
0.63756613	0.80833872	0.64018855
0.6322969	0.03401324	0.12939184
0.62202931	0.5466813	0.12156227
0.09928723	0.29323987	0.11496315
0.14182342	0.81068464	0.14608302
0.11053302	0.04199238	0.65773518
0.09798547	0.55317871	0.64063349
0.60905041	0.29589164	0.62818745
0.63710618	0.80744999	0.64046044
0.62484488	0.02814806	0.13137848
0.62286824	0.5455519	0.1242171
0.10623766	0.29161933	0.11172503
0.13848816	0.80992478	0.14607277
0.11077043	0.03708907	0.65480754
0.10250187	0.5524644	0.6428982
0.60398381	0.29463236	0.63192745
0.63320852	0.80647097	0.64967979
0.61743657	0.02338258	0.13186088
0.62479356	0.54593196	0.12838656
0.11218958	0.2888885	0.11462415
0.13677008	0.80660283	0.14795583
0.10656786	0.0314631	0.64612254
0.10663516	0.54990385	0.644172
0.60139222	0.2944058	0.63403588
0.62780391	0.80442914	0.65778501
0.61128983	0.02073271	0.13146341
0.62520098	0.546508	0.13268055
0.10997469	0.28612777	0.12056952
0.13976175	0.80096871	0.1509048
0.09855227	0.02581081	0.63674072
0.11007793	0.54710652	0.64633507
0.60308211	0.29201503	0.63177962
0.62269961	0.80160194	0.65778841
0.60605463	0.02173418	0.13153042
0.62184018	0.5452548	0.13479342
0.104715	0.28411227	0.12635538
0.14435449	0.79489865	0.15281583
0.08921065	0.02160768	0.63447332
0.11166802	0.54481023	0.65060257
0.60831727	0.28822992	0.62845999
0.6211464	0.79867789	0.65209784
0.60123446	0.02546404	0.13066887
0.61740955	0.54362837	0.13193429
0.10066043	0.28246678	0.12944222
0.14611856	0.79120468	0.14863614
0.08107074	0.01952239	0.64362237
0.11081921	0.54233408	0.65477964
0.6161111	0.28602591	0.6272064
0.62395162	0.79627352	0.64692702
0.59802949	0.03059315	0.13158177
0.61604281	0.54233405	0.12767094
0.10199325	0.28236442	0.1274528
0.1404199	0.79114669	0.14357812
0.0770083	0.02035135	0.65743651
0.11030268	0.54022055	0.65563114
0.62241456	0.28692349	0.62874694
0.6308214	0.79601584	0.64636957
0.59821283	0.03578574	0.13587359
0.6256696	0.54119821	0.12692493
0.10827865	0.28392504	0.1237306
0.12910634	0.7930181	0.14182602
0.07641188	0.02470498	0.66827687
0.11245796	0.53733478	0.65383625
0.62444207	0.29096765	0.63353195
0.63892565	0.79771052	0.64968261
0.60019083	0.03929795	0.13904353
0.64269156	0.54190486	0.12884045
0.11217723	0.28520367	0.12299562
0.11778509	0.79569326	0.14471096
0.07686718	0.02908133	0.67322061
0.11632504	0.53380136	0.64978726
0.62226422	0.29567998	0.63697299
0.64417456	0.79964074	0.65393787
0.60318295	0.04108489	0.14194181
0.65902178	0.54431047	0.13214283
0.11220604	0.2860007	0.12582557
0.10952876	0.79652536	0.15095979
0.08115106	0.03073563	0.66888548
0.12055739	0.53139275	0.6447817
0.61852632	0.29824212	0.63705702
0.64496284	0.80117464	0.65634432
0.60548073	0.04110862	0.14258066
0.6680261	0.54667905	0.13302065
0.10924426	0.28695561	0.13171474
0.10548783	0.795925	0.15340155
0.08685554	0.030912	0.66205769
0.12054302	0.53098634	0.64189591
0.61673857	0.29753491	0.63468264
0.64392759	0.80094487	0.65500347
0.6050772	0.03974877	0.14123509
0.66678008	0.54774775	0.13083447
0.10508611	0.28766026	0.13498539
0.10640469	0.79618305	0.14973778
0.09151539	0.03088053	0.65866044
0.1155219	0.53594718	0.64237023
0.61805584	0.29494154	0.63110399
0.6422125	0.80061764	0.65047745
0.60300956	0.03796907	0.14106611
0.65807512	0.54698151	0.12715873
0.10386779	0.2886789	0.13361658
0.10938668	0.79756423	0.14403109
0.09514973	0.03268345	0.6615959
0.11092978	0.54510624	0.64384647
0.62213733	0.29288138	0.62874005
0.63996832	0.80259454	0.64520243
0.60151337	0.03785254	0.14008807
0.64621672	0.54757613	0.12308743
0.10814459	0.29005855	0.13370283
0.11309771	0.79969459	0.13881609
0.09606946	0.03578838	0.66828359
0.11079874	0.55289806	0.64524663
0.62585155	0.29230264	0.63048882
0.63703869	0.80583901	0.64180488
0.60129519	0.04091739	0.13787263
0.63432048	0.54969253	0.12070244
0.11938528	0.29103774	0.13620007
0.11766832	0.80115531	0.13766902
0.09440036	0.03764404	0.67255795
0.11579731	0.55703793	0.64508642
0.62653078	0.29283756	0.63303215
0.63278254	0.81033665	0.64160162
0.60413805	0.04550238	0.13586659
0.62664081	0.55316658	0.12031998
0.13444127	0.29211174	0.14392863
0.12662699	0.8015659	0.13937272
0.09495698	0.03967328	0.67245999
0.12301278	0.55685672	0.64401291
0.62560706	0.29439086	0.63345115
0.63211946	0.81447966	0.64254721
0.61100978	0.04978177	0.13389454
0.62745058	0.55840049	0.12034104
0.14729878	0.29386681	0.15342779
0.13929058	0.80274018	0.14227584
0.09728056	0.04146627	0.66903705
0.1292833	0.55424493	0.6452884
0.62509479	0.2961184	0.63305686
0.63658172	0.81713883	0.64021373
0.61866003	0.05307752	0.13313344
0.63569443	0.56253362	0.12100506
0.14840907	0.29731453	0.15915738
0.15077451	0.80573823	0.14600956
0.10262861	0.04270099	0.66452273
0.13382847	0.55287187	0.64949878
0.6258327	0.29844513	0.63229179
0.64283416	0.81882431	0.63477932
0.62685985	0.05539262	0.13560886
0.64656785	0.56443258	0.12165853
0.14033218	0.30215031	0.15914991
0.15565006	0.81037385	0.14889123
0.10982247	0.04474338	0.66135591
0.13704031	0.55373343	0.65746089
0.62820915	0.301976	0.63251887
0.64819224	0.82006665	0.62940379
0.63543034	0.05698615	0.1385456
0.65688939	0.5650937	0.12023962
0.13136568	0.30729746	0.14964467
0.1518409	0.8166354	0.15115358
0.1144077	0.04752111	0.65951525
0.139122	0.55787203	0.66546805
0.63052931	0.3069021	0.63468121
0.65081175	0.82199976	0.62702626
0.64300117	0.05764539	0.1414995
0.66400024	0.56482107	0.11936134
0.12666143	0.31249668	0.13518665
0.14382933	0.82345126	0.15123234
0.11562983	0.05090018	0.65569203
0.14114527	0.56298688	0.66397389
0.63243375	0.31303948	0.63652926
0.6480743	0.82543316	0.6274435
0.64941214	0.05804472	0.1428416
0.66584267	0.56463581	0.12022593
0.12864708	0.31705482	0.12239555
0.13754872	0.82926268	0.14516801
0.11436568	0.05483074	0.64878441
0.14343205	0.56653272	0.65496148
0.63471104	0.31852362	0.63809503
0.64256038	0.82914964	0.62859524
0.65364963	0.05816529	0.14061482
0.6642878	0.56535045	0.1202305
0.13197524	0.32044674	0.115192
0.13808885	0.83310197	0.14088229
0.11347312	0.05900665	0.63998398
0.14482635	0.56864712	0.64349117
0.63754246	0.32155773	0.63893661
0.63969973	0.83211306	0.62769178
0.65465175	0.05779204	0.133327
0.66157728	0.56665204	0.11807732
0.13344086	0.32212268	0.11421334
0.14131917	0.83561205	0.13874681
0.11762066	0.06318008	0.6311571
0.14476908	0.57035864	0.63487977
0.64119586	0.32153713	0.63874268
0.6401934	0.83407743	0.62344065
0.65330249	0.05914363	0.12081727
0.65729602	0.56843806	0.11344966
0.13272983	0.3225903	0.11684641
0.14281452	0.83748233	0.13520679
0.12487561	0.06729091	0.62733649
0.14243348	0.57316105	0.63352524
0.64571847	0.32037568	0.63931373
0.64311018	0.83440828	0.62114595
0.65166498	0.06277609	0.10791671
0.65122944	0.5716462	0.10784631
0.12895424	0.32297292	0.11973965
0.14079414	0.83936182	0.13232847
0.13302444	0.07147388	0.63091009
0.13957279	0.57827242	0.6381665
0.64984722	0.3208565	0.64075304
0.6470732	0.83412252	0.62564253
0.64986571	0.06758128	0.10014554
0.64334877	0.57641299	0.1048357
0.12634799	0.32439156	0.12279489
0.13629047	0.84187957	0.12809178
0.14001632	0.07552908	0.63782893
0.13868434	0.58400771	0.64317862
0.65215244	0.32490958	0.64241621
0.65051958	0.83420391	0.63487058
0.64839879	0.07361705	0.09920882
0.6361904	0.58200095	0.10800312
0.12669618	0.32738231	0.12601904
0.13071784	0.84530166	0.12194111
0.14305334	0.07881872	0.64212363
0.14024161	0.58794243	0.64553724
0.653066	0.33151072	0.6433216
0.65192558	0.83525152	0.64386133
0.64808415	0.07876677	0.10419832
0.6323143	0.5881486	0.11630402
0.12722638	0.33188171	0.12743668
0.12637331	0.84866411	0.11531222
0.14454917	0.08126858	0.63880625
0.14195208	0.58998006	0.64387085
0.65393956	0.33710087	0.64178122
0.6512076	0.83843413	0.64913811
0.64922985	0.08130268	0.11112299
0.63363574	0.59382891	0.12441513
0.12820752	0.33712707	0.12649043
0.12379568	0.85132233	0.10853335
0.14690708	0.0838427	0.62892231
0.14013912	0.59007705	0.64041563
0.65686245	0.33998332	0.63899323
0.64941476	0.84230179	0.64756764
0.65196537	0.08183061	0.11682709
0.63864324	0.59713907	0.12903589
0.12874047	0.34267654	0.12306017
0.12158118	0.85222016	0.1052837
0.15121262	0.08671748	0.61827929
0.13491978	0.59138755	0.63510275
0.66201256	0.34074144	0.63894728
0.6471972	0.84529931	0.64023945
0.65566415	0.08051129	0.12187169
0.64278264	0.5960407	0.13076211
0.12716723	0.34778158	0.12044032
0.11985878	0.85166945	0.10572504
0.15869556	0.08972996	0.61068544
0.12800814	0.59488929	0.62714229
0.66772663	0.33921449	0.64077202
0.64619583	0.84833808	0.63158918
0.65925408	0.07865251	0.12440003
0.63891393	0.59224726	0.13019416
0.12704019	0.35035335	0.12037813
0.11798148	0.85147101	0.10704988
0.16561113	0.09219604	0.60767527
0.12300346	0.59901895	0.61997319
0.67235772	0.3370793	0.64413441
0.64639032	0.85019137	0.62606739
0.6620778	0.07852314	0.12472024
0.62895981	0.58955343	0.12954757
0.12947771	0.35058812	0.12365974
0.11642979	0.85202336	0.11029722
0.16915398	0.09338807	0.60955693
0.12140291	0.60330821	0.61499976
0.67366238	0.33595001	0.64824757
0.64733222	0.85126949	0.62489701
0.66332242	0.08097046	0.12202825
0.617566	0.59077043	0.13245971
0.13424704	0.34898166	0.12970093
0.11684904	0.85306756	0.11059526
0.16958089	0.09371423	0.61303038
0.12282449	0.60541292	0.61459774
0.67076787	0.33665959	0.64875579
0.64750549	0.85243537	0.62697983
0.66225923	0.08576304	0.11589593
0.60957065	0.59361846	0.14151895
0.14026141	0.34638874	0.13443295
0.1185068	0.85470277	0.1058175
0.16722206	0.09307801	0.61532491
0.12723268	0.60542505	0.61818656
0.66649463	0.33877215	0.64390622
0.64447392	0.85326818	0.63121273
0.65951713	0.09103086	0.11144336
0.60795994	0.59717518	0.15426461
0.14381184	0.34441111	0.13433083
0.11931112	0.85618867	0.10233747
0.16400244	0.09187086	0.61476033
0.13246838	0.60549785	0.62135891
0.66185219	0.34105271	0.63808658
0.63847259	0.85464792	0.6352606
0.65517695	0.09411915	0.11094549
0.61445454	0.60070064	0.1643632
0.14473367	0.34296644	0.13032785
0.1193718	0.85787888	0.09945853
0.16323397	0.09042781	0.61160558
0.13431356	0.60566769	0.62317001
0.65796429	0.34286712	0.63651938
0.62911188	0.85679972	0.63782253
0.65216737	0.09544548	0.11520015
0.62500555	0.60155083	0.16892177
0.14525197	0.3421142	0.12377557
0.11967461	0.85990424	0.09803418
0.16596611	0.08849789	0.61027556
0.13108464	0.60646735	0.62229119
0.65465839	0.344453	0.64034943
0.62319009	0.85909566	0.64159688
0.65443814	0.09407107	0.1257089
0.63426355	0.60159535	0.16734169
0.14301287	0.3416572	0.11618777
0.12090651	0.8622096	0.09806949
0.16991175	0.08582848	0.61108503
0.12568493	0.60729611	0.62001708
0.6507692	0.34582307	0.64247772
0.62306075	0.86131581	0.64517384
0.65953951	0.09036692	0.13417362
0.6377578	0.6014603	0.15886504
0.13965071	0.34158914	0.10907629
0.1228031	0.86448722	0.09847231
0.17316585	0.08282954	0.61234533
0.12315099	0.60687368	0.62184115
0.64985959	0.34614374	0.64021788
0.62454119	0.86222794	0.64703958
0.66504786	0.08679538	0.13573488
0.63508543	0.60025	0.14967902
0.13896184	0.34264276	0.10365889
0.12319024	0.86427078	0.10183123
0.17455179	0.08049014	0.61392634
0.1237331	0.60456745	0.62771628
0.6526289	0.34480387	0.63621134
0.62610755	0.8622782	0.64863145
0.66971168	0.0836355	0.13170225
0.62961777	0.59917959	0.14414235
0.14013469	0.34415539	0.10079416
0.12271385	0.86133084	0.1078254
0.17269479	0.07931799	0.61352876
0.12423265	0.60045763	0.63722596
0.65552034	0.34260125	0.63302109
0.62394497	0.8618876	0.64733982
0.66936754	0.08168498	0.12358468
0.62626923	0.59779588	0.14082106
0.14186184	0.34582235	0.1010625
0.11864122	0.85668131	0.11340544
0.16871803	0.07963056	0.6121989
0.12027051	0.59562033	0.6478893
0.65790976	0.34127416	0.63584819
0.61788563	0.85958104	0.6439339
0.66507993	0.08214317	0.11579382
0.62492932	0.59673072	0.14200627
0.13950732	0.34740027	0.10333393
0.11167784	0.85148684	0.11728816
0.16399694	0.08102181	0.61354729
0.11305737	0.59206469	0.6547405
0.65650402	0.34134323	0.64460301
0.61186953	0.85561732	0.64172848
0.659785	0.083396	0.10885397
0.62452839	0.59684087	0.13990248
0.13128124	0.34686076	0.10663881
0.10704673	0.84812446	0.11860367
0.15789337	0.08238128	0.61744579
0.10588768	0.58942998	0.65740594
0.65180799	0.34246728	0.65390592
0.61305562	0.85121987	0.64180797
0.65369529	0.08657303	0.10267153
0.62324049	0.59685118	0.13388535
0.12306278	0.34483094	0.10971104
0.10521658	0.84794118	0.11468136
0.14960919	0.08264359	0.62316906
0.10340425	0.58665636	0.65752969
0.64697628	0.34207865	0.66158451
0.62448113	0.84691455	0.64389266
0.64847752	0.08887689	0.09868765
0.62311757	0.59660529	0.12875064
0.1180551	0.34156898	0.11042964
0.10599819	0.84937697	0.10888523
0.14171028	0.08109258	0.6282259
0.1082066	0.58398435	0.65365212
0.64276993	0.33881557	0.66510777
0.64035131	0.84363833	0.64637882
0.64381484	0.08805361	0.09874836
0.62776856	0.59652112	0.12545615
0.1196463	0.33639743	0.10951386
0.10736844	0.85084177	0.1035589
0.13636982	0.07858487	0.63109837
0.11504423	0.58098212	0.64708441
0.64142028	0.33415886	0.66370374
0.65345583	0.84198491	0.65039019
0.63992372	0.08703767	0.10390967
0.63400514	0.59527809	0.12571006
0.1264761	0.33073709	0.10783032
0.10669958	0.84851824	0.10413747
0.13180125	0.07601626	0.6334092
0.11996674	0.58026941	0.63920374
0.64232667	0.32975573	0.65759612
0.65910001	0.84188326	0.65499375
0.63882324	0.08523091	0.11184214
0.64070313	0.59486584	0.12908386
0.1329151	0.32564986	0.10898682
0.103407	0.84282815	0.11145222
0.1262616	0.0747396	0.63466452
0.119567	0.58251735	0.63186359
0.64336238	0.32724866	0.64887016
0.65375936	0.84244538	0.65389188
0.64155486	0.08168024	0.12179676
0.64452958	0.59484056	0.12983365
0.13515446	0.32214999	0.11227061
0.09924326	0.83612561	0.1212667
0.12107364	0.07469434	0.63542307
0.11565136	0.58503161	0.62813419
0.6437128	0.32684434	0.64133848
0.64208556	0.84202316	0.64942271
0.64859129	0.07679525	0.1323923
0.64251214	0.59349371	0.12567941
0.13326539	0.32135013	0.11550968
0.09683436	0.83094041	0.13234933
0.1170693	0.07401927	0.63735115
0.11400399	0.58592651	0.62732172
0.64104111	0.32679784	0.6365009
0.63080314	0.84033286	0.64537896
0.65500353	0.07087935	0.14046769
0.63775955	0.59085051	0.11918508
0.1293277	0.32169109	0.1191383
0.09646482	0.82879241	0.14215055
0.11521764	0.0728249	0.63840774
0.11675662	0.58447954	0.62987962
0.63732792	0.32626354	0.63443343
0.62375732	0.83775096	0.64051474
0.65756968	0.06525775	0.14417725
0.63117406	0.58732505	0.11490895
0.12622918	0.32292324	0.12160576
0.09980091	0.828632	0.1461016
0.11624739	0.07000943	0.63934361
0.12238168	0.58146019	0.63418778
0.63405926	0.32470177	0.63668752
0.6222935	0.8346171	0.6365697
0.65534321	0.0613588	0.14404378
0.62616852	0.5837056	0.11853113
0.12595513	0.32357555	0.12297467
0.10534562	0.82872193	0.14333732
0.11785578	0.06502242	0.63935258
0.1281814	0.57788069	0.63345871
0.63037968	0.32239947	0.63944018
0.62689063	0.83236285	0.63465325
0.6483862	0.05892824	0.14344772
0.62579417	0.58030567	0.12846363
0.12818209	0.32151225	0.1254943
0.11302718	0.82809894	0.13847583
0.11971583	0.05981952	0.63862949
0.13245824	0.57440906	0.62615188
0.62887662	0.32044676	0.63943582
0.63469123	0.83149949	0.63424035
0.64007854	0.057779	0.14461387
0.62886243	0.57636827	0.13835845
0.13092613	0.31864305	0.12902253
0.12059616	0.82676345	0.13238826
0.12045279	0.05505426	0.64228934
0.13452429	0.57226983	0.61702096
0.62850392	0.31906196	0.63912855
0.64101658	0.83125659	0.63637946
0.63129683	0.05797907	0.14911045
0.6340497	0.57128721	0.14311973
0.13097728	0.31606289	0.13342004
0.12492751	0.82501605	0.12812587
0.11953725	0.05299694	0.64859054
0.1350658	0.57102951	0.61062242
0.62778052	0.31780595	0.63896042
0.64370818	0.83121704	0.63831262
0.62320902	0.05858667	0.15607121
0.63743809	0.56608149	0.13931047
0.1279942	0.3134563	0.13731877
0.12893839	0.82397255	0.12642401
0.11878367	0.05403255	0.65412495
0.13446119	0.56940779	0.6120907
0.62792406	0.3167973	0.6397164
0.64178659	0.83052215	0.63773314
0.61834602	0.05856875	0.16018239
0.63731078	0.56127397	0.1317175
0.12517867	0.31167333	0.13980541
0.13083715	0.82359872	0.12653202
0.11767366	0.0556697	0.65675434
0.13387352	0.56762625	0.62050567
0.6276026	0.31553911	0.6414648
0.63945678	0.82894793	0.63394691
0.61622456	0.05671096	0.15749971
0.63592402	0.55786043	0.12463197
0.12306892	0.30999697	0.14213412
0.13020777	0.82199359	0.12964233
0.1157573	0.05752724	0.65293552
0.1322997	0.56559806	0.6313185
0.627503	0.31415645	0.64121522
0.6390627	0.82701944	0.62790479
0.61640457	0.0529518	0.14804462
0.63394346	0.55604202	0.11959096
0.12211649	0.3076892	0.14322003
0.12956906	0.81933083	0.13338038
0.11253414	0.05810912	0.64692685
0.12881144	0.56401975	0.64022778
0.62812887	0.31311359	0.63799091
0.63928617	0.82513883	0.62492489
0.61799257	0.04913538	0.13617624
0.63339584	0.5560047	0.11563397
0.12045332	0.30471685	0.14322897
0.12893385	0.81675875	0.13535734
0.10794714	0.05661888	0.64215309
0.12591231	0.5640722	0.64470143
0.62756395	0.31226061	0.63204013
0.63929302	0.82328787	0.62559602
0.61998115	0.04655367	0.12667305
0.63690741	0.55790989	0.11143383
0.1159224	0.30085758	0.14194459
0.13005029	0.81519224	0.13400584
0.10611649	0.05419166	0.63899784
0.1248413	0.56441259	0.64561014
0.62499276	0.31197933	0.62758434
0.63610353	0.821917	0.62950566
0.62199726	0.04605052	0.12213331
0.63958218	0.56020455	0.1075442
0.11114471	0.29760333	0.13726137
0.13485806	0.81460614	0.12692537
0.10636266	0.05077129	0.63835225
0.12575117	0.56372187	0.64702166
0.62015481	0.31166784	0.62963089
0.63047461	0.82094061	0.63740696
0.62192986	0.04718814	0.12056156
0.63896397	0.56135829	0.10691717
0.10508426	0.29640052	0.13157206
0.14116145	0.8138083	0.11857858
0.10627117	0.04777766	0.6408754
0.12734911	0.56166631	0.65078818
0.61471165	0.30941708	0.63575349
0.62681991	0.81938217	0.64342331
0.61909697	0.04752805	0.12022978
0.63639389	0.56048769	0.11255549
0.09985425	0.29775169	0.12970603
0.14607681	0.81172466	0.11342631
0.10690553	0.04676037	0.64515929
0.12716113	0.5578057	0.6558988
0.61276959	0.30498659	0.6462435
0.62744277	0.81754305	0.64782402
0.61701906	0.04621923	0.12031197
0.63379929	0.55851929	0.1219317
0.09921035	0.30030479	0.13220973
0.1478778	0.80817229	0.11446306
0.10624044	0.04636037	0.65139503
0.12524167	0.55409773	0.66144042
0.61538264	0.29915359	0.65727606
0.63376527	0.81547515	0.65211503
0.61744676	0.04458585	0.1201557
0.63538103	0.55650149	0.12783482
0.10356313	0.30190932	0.13704696
0.14742453	0.80422099	0.12362416
0.10509763	0.04700293	0.65773446
0.12163716	0.55237589	0.66366254
0.62288636	0.29404099	0.66139406
0.64328551	0.81407393	0.6547763
0.6200682	0.04449447	0.12053243
0.6408826	0.55578622	0.12594783
0.11025989	0.3022087	0.14155547
0.14659214	0.80208133	0.13724182
0.10724763	0.04786331	0.6621766
0.11686407	0.5528643	0.66191297
0.63196524	0.29197275	0.66030269
0.6483956	0.8144301	0.65593708
0.62522264	0.04587269	0.12175015
0.64877876	0.55842695	0.12044804
0.11681258	0.30206523	0.14024488
0.14702719	0.80421386	0.14739444
0.11042628	0.04753856	0.66271953
0.11264784	0.55517321	0.65888628
0.6360024	0.29188512	0.65369733
0.64888921	0.81526849	0.655138
0.6304587	0.0481889	0.12401865
0.65702388	0.56280347	0.11476691
0.12031369	0.3016635	0.13303919
0.1508758	0.80941855	0.15082969
0.1138951	0.04798205	0.65669387
0.11113745	0.55762988	0.65519986
0.63594936	0.29464858	0.64213599
0.64612484	0.81573467	0.65222026
0.63229515	0.05112756	0.12668986
0.66145853	0.56691941	0.11266989
0.11929643	0.30143713	0.12392279
0.15690202	0.81511256	0.14814553
0.11677574	0.05033606	0.64808459
0.1111778	0.55997981	0.6505036
0.63295706	0.30052716	0.62978944
0.64073192	0.81467538	0.64907766
0.62945515	0.05319689	0.12816651
0.66156258	0.56939339	0.11529518
0.11548822	0.30228083	0.11634251
0.15717905	0.81845867	0.14356313
0.11680233	0.05177688	0.64057973
0.11050313	0.5625324	0.64533785
0.62903693	0.30498787	0.61665369
0.63643578	0.81111684	0.64731918
0.62332943	0.05470491	0.12636398
0.65797639	0.56846806	0.12140545
0.11236797	0.30409156	0.11246246
0.15019833	0.81875137	0.14094149
0.11485261	0.05199037	0.6334579
0.11092263	0.5644364	0.64110728
0.62654364	0.30716817	0.61223702
0.63306988	0.80687868	0.65004776
0.61664542	0.05644796	0.12351797
0.65139391	0.56552217	0.12963671
0.11523592	0.30596529	0.11173083
0.1403996	0.81804685	0.14065941
0.11207193	0.04984217	0.62698034
0.11496356	0.56622966	0.64001216
0.62484378	0.30736466	0.61907812
0.63179894	0.80402603	0.6566766
0.61215459	0.05801325	0.12071367
0.64466617	0.56307404	0.13712509
0.12461016	0.30868222	0.11407024
0.13110444	0.81760936	0.142158
0.1101407	0.0460803	0.62404936
0.1221446	0.5675266	0.64280665
0.62185696	0.3058321	0.6289782
0.63604303	0.80587224	0.6615825
0.61235483	0.05955632	0.116888
0.63933677	0.56143647	0.14337443
0.13415656	0.31170753	0.12142178
0.12745125	0.8186406	0.14502441
0.1090476	0.0444354	0.6275052
0.13079872	0.5663018	0.64605605
0.62069789	0.30437524	0.63557711
0.64361037	0.8117244	0.66207819
0.61916325	0.06056852	0.11667491
0.63857248	0.56036403	0.14860193
0.13966579	0.31435754	0.13185731
0.12884464	0.82199157	0.14842969
0.10704219	0.04466211	0.64119651
0.13789756	0.56316216	0.64745756
0.62124694	0.30242123	0.6313353
0.64923056	0.81739644	0.6556004
0.62955046	0.05970294	0.11511772
0.64177564	0.5612707	0.14596713
0.13709097	0.31776136	0.14010286
0.13145265	0.82590156	0.15373978
0.10624714	0.04740106	0.65580594
0.13879651	0.55994498	0.64798801
0.62332424	0.30171652	0.62402352
0.65026235	0.81947484	0.64457871
0.63572314	0.05663727	0.11126423
0.64542254	0.56242436	0.13811321
0.12969875	0.32184746	0.14429035
0.13427225	0.82896687	0.1583191
0.1083145	0.05215485	0.65977117
0.13605295	0.55800059	0.64680812
0.62943652	0.30384716	0.62249997
0.64465312	0.81835821	0.63434208
0.63698089	0.05308716	0.10681303
0.64750958	0.562809	0.13097841
0.12889868	0.32493717	0.1441463
0.13558594	0.83103565	0.15597944
0.1105975	0.05587986	0.6504941
0.13296065	0.55829183	0.6417859
0.63769703	0.30647758	0.62702721
0.63769756	0.81696069	0.63059692
0.63604601	0.05132473	0.10525404
0.64718962	0.56322004	0.12638145
0.13645032	0.3249208	0.14054564
0.13548766	0.83260231	0.14955341
0.11399895	0.05883363	0.63618689
0.12984821	0.56064083	0.63432008
0.64536786	0.30871674	0.62916321
0.63468217	0.81656402	0.63504664
0.63446464	0.05256653	0.11028349
0.6454566	0.563678	0.12842255
0.14768925	0.32259615	0.13436264
0.13435879	0.83463684	0.14099669
0.11929018	0.06046934	0.62594513
0.12784696	0.56482731	0.62705182
0.65071531	0.30987139	0.62910357
0.63665309	0.81913523	0.64191882
0.63466787	0.05407942	0.11882556
0.64257157	0.56448585	0.13099368
0.15598632	0.31984758	0.12745429
0.13209105	0.83676312	0.13362269
0.12419889	0.06082595	0.62647833
0.12672608	0.56989435	0.62418335
0.6492578	0.30973274	0.62764411
0.64267114	0.82412465	0.64662744
0.63627876	0.05492939	0.12776364
0.63773185	0.56498766	0.13103444
0.15559312	0.31765738	0.1242675
0.13061574	0.83822312	0.12957762
0.12660052	0.06118982	0.63486215
0.12853765	0.57355263	0.6280243
0.64594688	0.3090952	0.62598287
0.64857927	0.82836268	0.64674322
0.63758466	0.05476575	0.13327842
0.63167172	0.56519067	0.12968369
0.14843198	0.31652947	0.12733262
0.13099969	0.83877632	0.12923358
0.12436157	0.06134231	0.64372467
0.13194268	0.57446974	0.63924542
0.64403042	0.30773123	0.62882212
0.65117496	0.83068748	0.64268433
0.63917747	0.05439844	0.13426457
0.62652234	0.56605966	0.12859976
0.13781224	0.31753582	0.12964317
0.13250365	0.8372327	0.13415948
0.12105825	0.06125492	0.64963642
0.1329553	0.57354217	0.65322392
0.64421626	0.30637024	0.63426421
0.64942744	0.83020098	0.6374161
0.64124018	0.05600078	0.13089236
0.62554676	0.56784112	0.12875529
0.12957933	0.31926399	0.12874068
0.13454229	0.83337687	0.14052326
0.12078779	0.06145957	0.64822096
0.13401786	0.57147928	0.66196327
0.64719922	0.30610937	0.63921488
0.64239424	0.8278008	0.63290907
0.64534747	0.05856085	0.12495903
0.62899527	0.57044547	0.1290509
0.12537447	0.3212883	0.12618771
0.13599427	0.83014458	0.14345194
0.12386766	0.06192553	0.64462292
0.13557028	0.57011481	0.66187587
0.65008213	0.30742864	0.63963744
0.63455826	0.82478182	0.63055891
0.6524989	0.06071471	0.11866074
0.63572367	0.57423915	0.12697369
0.12492798	0.32324133	0.12310679
0.1359411	0.82929305	0.14072947
0.12967832	0.06277282	0.64171297
0.13682229	0.57038262	0.65652036
0.65301633	0.31035466	0.63524244
0.63171311	0.82221302	0.6302425
0.65983552	0.062138	0.11555449
0.64397334	0.57808291	0.12194483
0.12621793	0.32380796	0.12201546
0.13450445	0.83003377	0.13191462
0.13800472	0.06381853	0.6379246
0.13767029	0.5727116	0.64807318
0.65679085	0.31457767	0.62914953
0.63521825	0.82122374	0.63234987
0.66462498	0.06239485	0.11429757
0.64968605	0.57989686	0.11654192
0.12677464	0.32241468	0.12362448
0.13150321	0.83200518	0.12116953
0.14649449	0.06444403	0.63364421
0.13752278	0.57644626	0.64073688
0.65850412	0.31824518	0.62654418
0.64227087	0.82227054	0.63491537
0.66405891	0.06261265	0.11303751
0.65233475	0.57932079	0.11402691
0.12667816	0.32038354	0.12698463
0.12813854	0.83424516	0.11220862
0.15397703	0.06459679	0.62809048
0.13654731	0.58054183	0.63700682
0.65852855	0.3203153	0.62971426
0.64799101	0.82468285	0.63616032
0.65779792	0.06464819	0.11306382
0.65309365	0.5774903	0.11732282
0.12807432	0.31903437	0.13083969
0.12584874	0.83585519	0.10980183
0.15837489	0.06428782	0.62221711
0.13604383	0.58467815	0.63553614
0.65657024	0.31972233	0.63747799
0.64574734	0.8283186	0.63664792
0.65020344	0.06892619	0.11592897
0.65138118	0.57596208	0.12380561
0.13280228	0.31949246	0.13365505
0.12390247	0.83653751	0.1147295
0.15785879	0.06481586	0.62027178
0.1372243	0.58821262	0.63447306
0.65210544	0.31878803	0.6451117
0.63759879	0.8327914	0.63524393
0.64373564	0.07471615	0.12393165
0.64852029	0.57524906	0.13026749
0.13957256	0.32154668	0.13579397
0.12177664	0.83624607	0.12150341
0.15360764	0.06684673	0.62498535
0.14028862	0.59037488	0.6317238
0.64778719	0.31990452	0.64641111
0.62961403	0.83778753	0.63015396
0.63923891	0.0791629	0.13204763
0.64693979	0.57517593	0.13246636
0.14479516	0.32409451	0.13593324
0.11805067	0.83563711	0.12382275
0.14828192	0.06932725	0.63464263
0.143981	0.59014884	0.6298455
0.64366508	0.32291748	0.6441661
0.62647991	0.84254643	0.62462198
0.63787816	0.07873345	0.13579179
0.64769219	0.5760443	0.12781451
0.14566408	0.32641566	0.13344537
0.11379517	0.83516161	0.11733289
0.14347004	0.07152877	0.64505785
0.14504534	0.58580378	0.6315044
0.63986431	0.32638709	0.64158883
0.62906028	0.84557113	0.62060716
0.63767996	0.07537607	0.13530966
0.6512483	0.5782347	0.11990893
0.14067305	0.32772372	0.1289542
0.11227953	0.83534894	0.11014095
0.14157292	0.07277624	0.64892726
0.14100329	0.57936737	0.63544186
0.6392566	0.32914323	0.6401039
0.63331291	0.84683103	0.61882219
0.63953857	0.07131524	0.13119298
0.65544504	0.58253868	0.11437304
0.13174211	0.32841377	0.12288747
0.11379653	0.83714258	0.10898677
0.14354082	0.07320345	0.64690617
0.13226611	0.57450638	0.63894079
0.63918523	0.33107736	0.64332566
0.6364942	0.84589786	0.62001299
0.64431723	0.06883692	0.12708238
0.65730659	0.58819582	0.1140532
0.12738037	0.33053174	0.11825652
0.11769974	0.83976307	0.11317304
0.14642493	0.0739501	0.6406691
0.12721081	0.57340127	0.63853366
0.64023622	0.33308457	0.64616065
0.63600814	0.84356286	0.62189563
0.65003893	0.0699999	0.12599104
0.65574712	0.59287437	0.11675164
0.12901893	0.33360727	0.11751405
0.12458815	0.84245392	0.11652219
0.14821829	0.07610165	0.63230524
0.12805021	0.57732976	0.6329925
0.64318065	0.33686146	0.6423547
0.63243935	0.84240622	0.62478182
0.65517964	0.07229233	0.12753398
0.64969014	0.59529695	0.11979515
0.13472937	0.33592388	0.12147934
0.1295901	0.84483232	0.11401902
0.14676115	0.07830027	0.62549434
0.1315242	0.58423477	0.62486927
0.64500912	0.34166603	0.63714461
0.63017822	0.84401431	0.6297745
0.65697347	0.07378106	0.13003582
0.64340768	0.59619889	0.12228013
0.1409257	0.33538688	0.1260603
0.13123706	0.84568369	0.10625334
0.14301268	0.07865347	0.62061742
0.13352737	0.59018717	0.61700308
0.64674576	0.34504443	0.63551541
0.63099734	0.84821389	0.63474572
0.65349783	0.07445511	0.13232969
0.63951088	0.5959346	0.12528949
0.14587498	0.33050463	0.12449206
0.13087489	0.84539292	0.09754136
0.1401933	0.07645584	0.61846418
0.13218452	0.59291857	0.61226818
0.64615507	0.34519919	0.63827043
0.63478717	0.85410348	0.63859064
0.64473188	0.07403315	0.13233229
0.63437131	0.59476097	0.12820976
0.14635651	0.32410172	0.11619728
0.12798674	0.84448941	0.0899199
0.13733455	0.07371032	0.6212656
0.13057052	0.59153788	0.61164889
0.6399767	0.34347858	0.64478917
0.63869039	0.85828268	0.6405959
0.6321225	0.07332494	0.13133337
0.62817872	0.59324164	0.13115584
0.14133793	0.3180552	0.10494787
0.12562945	0.84264343	0.08569373
0.13313262	0.07283207	0.62574563
0.13066961	0.5899335	0.61526766
0.63557912	0.34208652	0.65092276
0.64020475	0.86037923	0.63887099
0.62322222	0.0733903	0.13219336
0.62227243	0.59091287	0.13509177
0.13576271	0.3146654	0.09495585
0.12389887	0.84023674	0.08601128
0.12698871	0.07433894	0.63169399
0.13171658	0.59056113	0.62097629
0.63491658	0.34200654	0.65527323
0.63824027	0.86115794	0.63603057
0.62282343	0.07419451	0.13651644
0.61671513	0.58838525	0.13723339
0.12708302	0.31518341	0.08928021
0.12432745	0.83850491	0.08985618
0.11832581	0.07649637	0.636495
0.13141722	0.59207059	0.62630792
0.63710046	0.34332517	0.65881999
0.63781319	0.85876591	0.63459457
0.62707292	0.07578595	0.14259006
0.61521178	0.58630361	0.13768768
0.11568557	0.31718271	0.08766635
0.13111109	0.83738709	0.09370319
0.1104785	0.07869694	0.63421936
0.12828833	0.5931266	0.63030499
0.64167764	0.34486609	0.65894903
0.64088533	0.85594358	0.63852315
0.63331814	0.07774238	0.14310406
0.61690087	0.58388577	0.13333885
0.10453122	0.31992834	0.09135693
0.1395572	0.83515495	0.09477085
0.1070153	0.08048197	0.62986193
0.12208872	0.59245962	0.63194181
0.64573678	0.34433313	0.65917877
0.64556366	0.85353447	0.64638539
0.63705324	0.07824726	0.13937984
0.61927088	0.58233494	0.12419083
0.10002775	0.32306753	0.09962958
0.14514955	0.83159083	0.09179953
0.10585624	0.08208166	0.62258018
0.11289594	0.59012275	0.63081618
0.64738099	0.34011514	0.65932421
0.64888862	0.85085761	0.65038895
0.63721902	0.07605214	0.13404706
0.61907795	0.58249614	0.11882264
0.10412107	0.32499679	0.10982638
0.14390574	0.82701229	0.09004847
0.10958685	0.08340469	0.61574684
0.10220464	0.58809556	0.62643922
0.64627918	0.33437357	0.65696351
0.64743284	0.84820558	0.64839182
0.63577933	0.07281618	0.12885814
0.61479652	0.583211	0.11856955
0.11258686	0.3242102	0.11833686
0.13723988	0.82292511	0.09512797
0.11519197	0.08371355	0.61303066
0.09399037	0.58732185	0.61841722
0.63967844	0.33024584	0.65361578
0.63948473	0.84526228	0.64147854
0.63526114	0.07123345	0.12952411
0.60910089	0.58436507	0.12142182
0.118166	0.32204788	0.12525864
0.12899391	0.8208135	0.10515091
0.11961151	0.08211208	0.61320713
0.09162397	0.5865177	0.61076344
0.62988473	0.32969442	0.64828831
0.62633233	0.84286704	0.63576615
0.63491177	0.07207867	0.13331775
0.60303527	0.58489675	0.12656063
0.11582754	0.31989031	0.12891902
0.11995134	0.82072654	0.11670628
0.12178905	0.07716643	0.61869787
0.09401998	0.58464614	0.60664914
0.61879248	0.33239844	0.64067752
0.61514723	0.84139368	0.63292218
0.63340909	0.07349423	0.13688572
0.59944249	0.58387524	0.13209136
0.10869653	0.31767748	0.127377
0.11253795	0.82264447	0.12353489
0.12039597	0.07079638	0.62929656
0.09920304	0.5819367	0.6082612
0.60842945	0.33477487	0.63669266
0.61032862	0.84033793	0.63166966
0.63116876	0.07376957	0.13941836
0.60282837	0.5820968	0.13683757
0.09885814	0.31506034	0.12302966
0.10671804	0.82552588	0.12355367
0.11617216	0.06578429	0.63593693
0.1047689	0.57995483	0.61697441
0.60447457	0.33411678	0.63714024
0.61034936	0.84003565	0.63268162
0.6288333	0.07185498	0.13991259
0.61091931	0.57946893	0.1408825
0.09299299	0.3118142	0.11788127
0.10168603	0.82734218	0.1215355
0.10953886	0.06380676	0.64071162
0.10851604	0.57931958	0.62781132
0.60784985	0.33101856	0.63834745
0.61520655	0.83960764	0.63519894
0.62664519	0.06820774	0.14005796
0.62101682	0.57663598	0.1430457
0.09285596	0.30877819	0.1141521
0.10153905	0.82817324	0.12240931
0.10387502	0.06522346	0.64193959
0.10867937	0.57900316	0.6369106
0.61667087	0.32792936	0.63911062
0.62289312	0.83789839	0.63991215
0.62484376	0.06451349	0.14126132
0.62873706	0.57511998	0.14322957
0.09895883	0.30830289	0.11269395
0.10556889	0.82817093	0.12964338
0.10358612	0.0673248	0.63858172
0.10529866	0.57889121	0.64230167
0.62711333	0.32639642	0.63863426
0.62684516	0.83551445	0.64715378
0.62566763	0.06196267	0.14284157
0.6323058	0.57359797	0.14151918
0.11207215	0.31050505	0.11369333
0.11004433	0.82826629	0.1375255
0.10766476	0.06639224	0.63711649
0.10154234	0.57808216	0.64237781
0.63475445	0.32573526	0.63853326
0.62741965	0.83184228	0.65460723
0.62887298	0.06113715	0.14299477
0.63311533	0.57223	0.1375507
0.12601758	0.31454664	0.11932148
0.11498762	0.82947734	0.14238249
0.11403594	0.06282249	0.63887598
0.10002325	0.57581878	0.63868551
0.63537326	0.32489422	0.63945156
0.62475701	0.82833422	0.66030377
0.6319888	0.06099672	0.13867641
0.63223132	0.57196463	0.13348492
0.13516601	0.31957486	0.12866768
0.11562452	0.8302173	0.14553827
0.12064912	0.05804414	0.64407191
0.10221017	0.57244732	0.63660493
0.63162759	0.32294133	0.63954476
0.61892086	0.82666428	0.66153964
0.63382481	0.0605677	0.13105518
0.63149439	0.57214	0.13138367
0.13590669	0.32290495	0.1370937
0.1146268	0.83014944	0.14565749
0.12413504	0.05382344	0.64956213
0.10602399	0.56850482	0.63895502
0.62526326	0.31952482	0.63857296
0.61320405	0.82627285	0.65748201
0.63299291	0.05973381	0.12417999
0.63203615	0.5732275	0.13187256
0.12697143	0.32275615	0.14060339
0.11492839	0.82929601	0.14371217
0.12491383	0.05157258	0.64958646
0.109823	0.56517519	0.6452403
0.61899914	0.31534803	0.63551997
0.61088908	0.82708706	0.65041024
0.62923	0.05874671	0.12039454
0.63171575	0.57518681	0.1336728
0.11294403	0.31974361	0.13650896
0.11114366	0.82700637	0.1436868
0.12479378	0.0524391	0.64529393
0.11421516	0.56392163	0.65016653
0.61492437	0.31208253	0.63089388
0.61525817	0.82775864	0.64307516
0.62380356	0.05865514	0.12402088
0.63003855	0.57711844	0.13465542
0.09988275	0.31477111	0.12769112
0.1080603	0.82488657	0.14424083
0.12390677	0.05606552	0.63970256
0.11996384	0.56435715	0.6497165
0.61333153	0.31018308	0.62775005
0.62405209	0.82617035	0.63909205
0.61939032	0.05981797	0.13420189
0.62824005	0.57770446	0.13349718
0.09533845	0.31055753	0.1193447
0.10780134	0.82363926	0.14394413
0.12483928	0.06006857	0.63470107
0.12704657	0.56571829	0.64288525
0.61600418	0.30877557	0.62698683
0.63313613	0.82301892	0.64042066
0.61861303	0.0608863	0.14182262
0.62691685	0.57637823	0.13058314
0.10203641	0.3085604	0.11399381
0.10812137	0.82298182	0.14144595
0.12825212	0.06180677	0.63384679
0.13517735	0.56675492	0.63703837
0.62271328	0.30676993	0.62818678
0.63983007	0.81979556	0.64420732
0.62067155	0.06102343	0.14280919
0.63046919	0.57432995	0.12737108
0.11466937	0.30834819	0.1130277
0.11004531	0.8233417	0.13519033
0.13320478	0.06058592	0.63537107
0.14091299	0.56641285	0.63889523
0.63128009	0.30459837	0.63103243
0.64332089	0.81737338	0.64847615
0.62493757	0.06020586	0.13872443
0.63778986	0.57180907	0.12439163
0.12877104	0.30935213	0.11647005
0.11264286	0.8244006	0.12731542
0.13876934	0.05742631	0.6359433
0.14163657	0.56507671	0.64595944
0.64014489	0.30295519	0.63362843
0.64379304	0.81679422	0.64885296
0.63192073	0.05903706	0.13014251
0.64207438	0.56939842	0.1226072
0.1364171	0.31040442	0.12214767
0.11658071	0.82595237	0.12075824
0.14095627	0.05446481	0.63800302
0.13757234	0.56349392	0.65381891
0.64442542	0.30184882	0.63568104
0.64244862	0.81765433	0.6435315
0.63989703	0.0593587	0.12072321
0.64224514	0.56801291	0.12052956
0.13761143	0.31138221	0.12898359
0.12257425	0.82728598	0.11762533
0.13949912	0.05270874	0.63889296
0.12976306	0.56340427	0.65830745
0.64259556	0.30350645	0.63666433
0.64113673	0.81894844	0.63820236
0.64760524	0.06123724	0.11278752
0.64008181	0.56712445	0.11648096
0.13573217	0.31291832	0.13534505
0.12823062	0.82758382	0.11958564
0.13541349	0.05276079	0.63792445
0.12257125	0.56457355	0.65668093
0.63850905	0.3073251	0.63622763
0.64006223	0.82016068	0.63724698
0.65248251	0.063239	0.10840984
0.63896156	0.56611309	0.1124126
0.13198362	0.31487773	0.13833771
0.13385926	0.82737473	0.12305527
0.1306847	0.05303419	0.63892568
0.11832178	0.5655261	0.65081056
0.63435592	0.3115089	0.63377551
0.64149335	0.82054371	0.63944592
0.65284852	0.06359262	0.10811592
0.64194091	0.56451667	0.11237798
0.12615564	0.31699426	0.13724487
0.13866482	0.82664637	0.12511694
0.12763491	0.0516783	0.64096584
0.1182	0.56535986	0.64414354
0.63248054	0.3157916	0.63072371
0.64583606	0.82034783	0.63893644
0.6514475	0.06060666	0.11000266
0.64805055	0.5629951	0.11781392
0.12093074	0.31841875	0.13401129
0.1401301	0.82517419	0.12312804
0.12602509	0.04930888	0.64413115
0.12469228	0.56405267	0.63915483
0.63451306	0.31847136	0.62936824
0.65167024	0.82014962	0.63217863
0.64671327	0.05657703	0.11356307
0.65479765	0.56315437	0.12460311
0.12041913	0.31731152	0.13060257
0.13979056	0.82457688	0.11831808
0.12632546	0.0472527	0.64867967
0.13481675	0.56330027	0.6365428
0.64102239	0.31771684	0.63059512
0.65918766	0.82008661	0.62064563
0.64133689	0.05365459	0.11807036
0.65799309	0.56475054	0.12877988
0.1253943	0.31486113	0.12827094
0.13880181	0.82546854	0.11810493
0.12876676	0.04621725	0.65236661
0.14517716	0.56443976	0.63279577
0.65023594	0.3149686	0.63336578
0.66740249	0.81956801	0.60674418
0.63988051	0.0522067	0.12274142
0.65472083	0.56700371	0.12985577
0.13314491	0.31235797	0.12697235
0.14118181	0.82628067	0.12135621
0.12980276	0.04565175	0.6575315
0.15290662	0.56684668	0.62475829
0.65841123	0.31158005	0.63727219
0.67322158	0.81743419	0.59253917
0.64290562	0.05282552	0.12754541
0.64768899	0.56807534	0.12441533
0.14273684	0.31131251	0.12710454
0.14701846	0.82651132	0.12442082
0.12790536	0.04570842	0.6632484
0.15329203	0.56903998	0.61394789
0.66075681	0.30981767	0.64294848
0.67530108	0.81472618	0.58343454
0.64983314	0.05270423	0.13068409
0.64240287	0.56673985	0.11583637
0.15189501	0.31351489	0.12898316
0.15197347	0.82630642	0.12508661
0.12501487	0.04686254	0.6661228
0.14657693	0.57070258	0.60630989
0.65885614	0.30991666	0.64726531
0.67444576	0.81480882	0.58108385
0.65821693	0.05142405	0.13352186
0.64595753	0.56507855	0.10619094
0.15843262	0.31676079	0.13346621
0.15593416	0.82688501	0.12136718
0.12158367	0.04944145	0.66831581
0.13749724	0.57199392	0.61243054
0.65588348	0.30917694	0.64693888
0.671706	0.81873618	0.58372721
0.66259477	0.05077374	0.1365798
0.6577793	0.56492835	0.09810838
0.16092914	0.31940041	0.14251945
0.16189734	0.82912769	0.11469375
0.11727643	0.05253233	0.66744133
0.13167789	0.57206185	0.6258194
0.65857525	0.30743133	0.64467074
0.66901381	0.82331981	0.59178745
0.66196529	0.05184251	0.13719572
0.67015221	0.56562454	0.09741528
0.16025275	0.32052378	0.15275934
0.16832047	0.83203916	0.11090422
0.11158786	0.05566208	0.66272
0.13483174	0.57060968	0.63595897
0.66759439	0.30468156	0.64060074
0.66935931	0.82625036	0.60136318
0.65608007	0.05507452	0.13395773
0.67743204	0.56663242	0.1026354
0.15834858	0.31893636	0.16006275
0.17403805	0.83477595	0.11414729
0.10873127	0.05785491	0.65471363
0.14395731	0.56930025	0.63983631
0.67613633	0.30157004	0.63647974
0.67224282	0.82563724	0.61168512
0.64891889	0.05909201	0.12561641
0.67508598	0.56637194	0.10783611
0.1546074	0.31699115	0.16062255
0.17254005	0.83655622	0.12166054
0.11134404	0.05986103	0.64269111
0.15507334	0.56922199	0.63714095
0.67874903	0.29966793	0.63485791
0.674001	0.82283984	0.62351122
0.64407961	0.06115817	0.11691838
0.66899306	0.56490796	0.11150936
0.15029098	0.3163205	0.15263693
0.16429971	0.83596747	0.12947264
0.11790552	0.06247669	0.62908404
0.16380356	0.5706728	0.63110721
0.67325792	0.29980677	0.63437875
0.67016915	0.81951452	0.63097374
0.64186722	0.06082983	0.11326381
0.6666491	0.56441262	0.11236685
0.14742635	0.31850771	0.13985533
0.15845484	0.83359774	0.13344097
0.12542378	0.06570095	0.61967553
0.16656197	0.57204619	0.62723104
0.66237839	0.3021132	0.63408018
0.66273998	0.81644391	0.63456069
0.64132583	0.05928512	0.11283471
0.66856556	0.56620237	0.11097008
0.14725582	0.32287424	0.12869194
0.15339017	0.82982525	0.13287179
0.13336455	0.06861128	0.61530401
0.16383031	0.57125333	0.62797435
0.65441332	0.30492289	0.63344733
0.65523398	0.81387008	0.63271517
0.64241318	0.0589863	0.11173441
0.6757965	0.56986187	0.10996854
0.14738064	0.32621151	0.124248
0.15274966	0.8256553	0.1300986
0.14074656	0.07031485	0.61504334
0.15718902	0.56924742	0.63552851
0.65182674	0.30572876	0.6337975
0.65060513	0.81159423	0.62846683
0.64482624	0.06049765	0.10856491
0.68071184	0.57353444	0.11171591
0.14864753	0.32740927	0.12599061
0.15601144	0.82304746	0.12837196
0.14712196	0.07112588	0.61802852
0.15067461	0.56716214	0.64743179
0.6548973	0.30474713	0.63494517
0.65097413	0.80970386	0.62747611
0.64763758	0.0610973	0.10319592
0.67932518	0.57491115	0.11600978
0.14989882	0.32629389	0.12940066
0.15758956	0.82360658	0.12994786
0.15251349	0.07092382	0.62041408
0.14889442	0.56827826	0.65795739
0.66030569	0.30386372	0.63429481
0.65464773	0.80890852	0.62607263
0.6495295	0.06023062	0.09862482
0.67247031	0.57341404	0.12077365
0.14954834	0.32473146	0.13126898
0.15614704	0.82803593	0.13248307
0.15603174	0.06910512	0.622035
0.15193108	0.57352814	0.66525987
0.66354997	0.30394117	0.63254159
0.65866464	0.80996736	0.62587984
0.65015442	0.05881693	0.09980988
0.66360485	0.57053605	0.12444529
0.1496289	0.32445524	0.13100261
0.15368598	0.83423283	0.13433185
0.15604721	0.06603353	0.62461897
0.15716591	0.57798512	0.66900156
0.66385475	0.30569911	0.63106094
0.65921374	0.81296892	0.62884387
0.64750209	0.05795421	0.10299402
0.6574862	0.56931396	0.12759276
0.14801811	0.32436755	0.12842402
0.14946071	0.83993295	0.13432133
0.15330196	0.0628982	0.62965175
0.16180873	0.57950656	0.66977382
0.6620635	0.30839989	0.62927963
0.65575866	0.8177307	0.63111596
0.64002467	0.05872175	0.10513716
0.65950514	0.57204411	0.13039078
0.14444444	0.32434634	0.12633849
0.14546111	0.84312776	0.13255611
0.14946331	0.0616735	0.63745111
0.16027233	0.57909802	0.67018236
0.66029521	0.31150519	0.62634653
0.65098239	0.82326404	0.63495915
0.63405136	0.06046264	0.10463791
0.66582312	0.57643176	0.132535
0.14102246	0.32518722	0.12566937
0.14288959	0.84321344	0.12845842
0.14315255	0.0620679	0.64484101
0.15087768	0.57726064	0.6694925
0.66025719	0.31441744	0.62432063
0.64541491	0.82799485	0.64099198
0.63318385	0.06233387	0.10200404
0.66911103	0.57949182	0.13488718
0.13939131	0.32619477	0.12613716
0.14151471	0.83984715	0.12539624
0.13544383	0.06293873	0.64936005
0.13774337	0.57513072	0.66560144
0.6592709	0.3170502	0.62340246
0.64051235	0.82992441	0.64664183
0.63598296	0.06347738	0.1002786
0.66818522	0.57959747	0.13814325
0.14028889	0.32737099	0.12757452
0.13997124	0.8365778	0.12324245
0.13009569	0.06359907	0.6491358
0.12804099	0.57216386	0.6585401
0.65577326	0.32069163	0.62439361
0.63698009	0.82874008	0.65055406
0.64046397	0.06338536	0.10400859
0.664109	0.57666582	0.14202472
0.14049843	0.3289436	0.12748124
0.13577197	0.83638807	0.12159096
0.12715482	0.06271904	0.64416955
0.12711371	0.56886878	0.64979961
0.64933629	0.32438779	0.62785204
0.63232635	0.82715883	0.64962905
0.64446894	0.06298256	0.11220332
0.65827963	0.57313346	0.14513165
0.13736026	0.33003037	0.12619017
0.12816406	0.83944693	0.12236834
0.12905259	0.06076153	0.63752916
0.13092574	0.56765935	0.6428338
0.63964112	0.32682908	0.63282459
0.62777103	0.82821988	0.64428505
0.64574668	0.06320269	0.12016581
0.65371391	0.57144161	0.14479197
0.13285769	0.33011104	0.12457037
0.12114683	0.84273738	0.12426017
0.1352141	0.05980036	0.63316263
0.13491887	0.56968479	0.63914808
0.63293066	0.32767147	0.63898761
0.62426695	0.83198137	0.63808453
0.64440092	0.06454539	0.12584816
0.65102428	0.57208184	0.14167541
0.12668744	0.32849081	0.12330659
0.1154814	0.84289783	0.12739267
0.14092621	0.0606553	0.63197899
0.13496204	0.57540525	0.63761872
0.63159706	0.3264805	0.64464668
0.62164206	0.83753911	0.63287196
0.64138767	0.06694803	0.12898083
0.64647967	0.57522099	0.1376608
0.12207726	0.32551539	0.12625619
0.11248151	0.8385069	0.1300712
0.1428747	0.06352565	0.63353432
0.13000222	0.58332824	0.63762593
0.63448653	0.32443722	0.64642827
0.62204073	0.8433286	0.63369787
0.63812437	0.06846464	0.13183779
0.63647147	0.57838712	0.13508689
0.12464956	0.32278704	0.13387135
0.11250286	0.8329068	0.12860171
0.14040821	0.06676027	0.63718889
0.12498499	0.590618	0.63673345
0.63825357	0.32509721	0.64398295
0.62463615	0.84811529	0.64320881
0.63564463	0.06828623	0.13476345
0.62187131	0.5802929	0.13464328
0.12810908	0.32122565	0.14310092
0.1108574	0.829577	0.1262181
0.13590979	0.06929475	0.64138223
0.12124184	0.59516918	0.63310223
0.63790507	0.3287291	0.64018335
0.62788295	0.84981092	0.6547262
0.63490531	0.06816639	0.13965068
0.60869726	0.58183568	0.13536222
0.1300991	0.32047336	0.1503544
0.10726235	0.83016674	0.12710045
0.131607	0.07084004	0.64378965
0.11872345	0.59517155	0.62812291
0.63118099	0.33332278	0.64160531
0.63124884	0.84968624	0.66300306
0.63702845	0.06893344	0.14524744
0.60219766	0.58339856	0.13664801
0.12833658	0.31942098	0.15001266
0.10377828	0.83209262	0.13186975
0.12724939	0.07124891	0.64093404
0.11637558	0.59000687	0.62176064
0.621995	0.33672528	0.64754966
0.63252941	0.84967201	0.66132992
0.64068299	0.07107489	0.1480144
0.60303028	0.58472703	0.13696389
0.12220963	0.31697454	0.14106513
0.10136398	0.83287661	0.14031468
0.12352872	0.07137936	0.63173512
0.11254144	0.58313691	0.61470643
0.61344017	0.33854872	0.65349042
0.63046613	0.84943459	0.65546312
0.64476378	0.07399979	0.14889685
0.60763744	0.58593776	0.13582442
0.1150513	0.3118432	0.12689062
0.09927298	0.83155189	0.14493471
0.11729827	0.07211081	0.61916687
0.10912337	0.57726434	0.60994466
0.60778871	0.33837968	0.65658861
0.62536539	0.84952567	0.65306967
0.64955825	0.07607379	0.14897169
0.60864481	0.58598888	0.1349907
0.10847968	0.30665985	0.11106579
0.09650406	0.82828195	0.14051833
0.10696493	0.07356294	0.60958716
0.10746653	0.57424181	0.60747801
0.60340479	0.33663429	0.65710482
0.62046135	0.84987679	0.6561759
0.65269362	0.07681074	0.14918789
0.60033627	0.58365519	0.13371628
0.101159	0.30402763	0.10255685
0.09265643	0.82351088	0.13149982
0.10125671	0.07544398	0.60912639
0.10689271	0.57537388	0.60783465
0.60011976	0.33507417	0.65633185
0.62149308	0.85003468	0.66167544
0.64713113	0.07662316	0.1505904
0.58514603	0.58056253	0.12973336
0.0930778	0.30648688	0.10636027
0.08942973	0.81977789	0.12141806
0.1031002	0.07720436	0.6164285
0.10569689	0.5765646	0.60995346
0.59999	0.33503225	0.65446825
0.62642194	0.85003653	0.66628633
0.63594212	0.07608082	0.15345833
0.57089285	0.57835425	0.12332109
0.08609522	0.31242958	0.11304426
0.08788966	0.81946424	0.11487639
0.10880677	0.07694412	0.62635808
0.10087753	0.57635372	0.6120251
0.60156844	0.33503186	0.65384692
0.62907317	0.84946005	0.66763584
0.62517975	0.07603847	0.15660919
0.56729763	0.57943363	0.11591071
0.08372816	0.31752122	0.11753884
0.09139302	0.82195952	0.11445819
0.11657943	0.07379534	0.6357168
0.09248396	0.57580124	0.61492072
0.60453812	0.33619224	0.65335737
0.62914162	0.84884211	0.66615527
0.62114036	0.07612013	0.15674211
0.57421253	0.58383778	0.10771826
0.08951188	0.3195749	0.11791798
0.10022735	0.82426924	0.11627202
0.12080282	0.07033125	0.64288384
0.08265892	0.57573526	0.6179525
0.60760478	0.33821776	0.65235354
0.62452096	0.84844995	0.66109878
0.62338214	0.07517567	0.15453477
0.58660679	0.58934592	0.10184162
0.09799584	0.31667863	0.11368827
0.107626	0.82403643	0.11868048
0.11986664	0.06705142	0.64805107
0.07377275	0.5783107	0.62066083
0.60605044	0.34080912	0.65218962
0.6171708	0.84841299	0.65389545
0.62667636	0.07170129	0.14898446
0.59828712	0.59373445	0.10191495
0.10441427	0.31055284	0.10831911
0.11006377	0.82152162	0.12129554
0.11594631	0.06485485	0.65108571
0.06925424	0.58178566	0.62237645
0.59936075	0.34405617	0.65244435
0.61182985	0.84901805	0.64644004
0.6276289	0.06738922	0.14327635
0.60407676	0.59377306	0.10511007
0.10593692	0.30490862	0.10495866
0.10865663	0.81937392	0.12290801
0.10908843	0.06396768	0.65191854
0.06777948	0.5828515	0.62081479
0.59215914	0.34594963	0.65443017
0.60834893	0.84872248	0.63956488
0.62309082	0.06455484	0.14362879
0.60460962	0.58793054	0.11271891
0.10036861	0.30142181	0.1063818
0.10384238	0.81952334	0.12449141
0.1023314	0.06349196	0.65088997
0.06827525	0.58074839	0.61821741
0.58855113	0.3443138	0.65932774
0.60705599	0.84796409	0.63401232
0.61576666	0.06490071	0.14798945
0.60231318	0.58067409	0.12471233
0.09161887	0.30059711	0.1119593
0.09969811	0.82195694	0.12550674
0.09731078	0.06336144	0.64810752
0.07258627	0.57590419	0.61748488
0.59161985	0.33976403	0.66558455
0.60699766	0.84815556	0.63121031
0.6095256	0.06726176	0.15415651
0.60407973	0.57499185	0.13470151
0.08706494	0.30299293	0.11626271
0.09911779	0.82515619	0.12137941
0.09522218	0.06299539	0.6446428
0.08117136	0.5709365	0.61785108
0.5992516	0.33400115	0.66820943
0.60626873	0.84952163	0.63149951
0.60822634	0.07000208	0.15971538
0.61081582	0.57267197	0.13747147
0.08808072	0.30740815	0.11863865
0.10324139	0.82686896	0.11167829
0.0995652	0.0620322	0.64179997
0.09204951	0.56979012	0.61913754
0.60723342	0.32968711	0.66413805
0.60621927	0.85162943	0.63347755
0.61143384	0.07088145	0.16253149
0.61728204	0.57267718	0.13436708
0.09303091	0.31259183	0.12104597
0.11033052	0.82533992	0.09814664
0.1051253	0.06089356	0.6389191
0.10066624	0.57243316	0.62021064
0.61340191	0.32742776	0.65531878
0.60788818	0.8532984	0.63539832
0.61546416	0.06888056	0.16392891
0.62232879	0.57339562	0.13468722
0.10101312	0.31656065	0.12364634
0.11706426	0.82276824	0.08753348
0.11025114	0.0599161	0.63653061
0.1049822	0.5768766	0.62246811
0.61806409	0.32673952	0.64725342
0.61173943	0.85319567	0.636184
0.61677763	0.06498186	0.16316868
0.62319589	0.57489151	0.14267186
0.10857454	0.31801058	0.12709448
0.12137477	0.82111687	0.08854905
0.11440646	0.05984271	0.63587213
0.10343066	0.58126543	0.62644222
0.62160074	0.32801125	0.64324018
0.61721353	0.85079854	0.63766777
0.61381885	0.06094894	0.16174818
0.6207819	0.57689335	0.1533108
0.11359891	0.31807986	0.12980994
0.1226634	0.82111781	0.09766766
0.11099525	0.06034166	0.63771392
0.09735736	0.58228841	0.62842785
0.62342701	0.33045861	0.64249152
0.62053079	0.84601467	0.64031589
0.61306726	0.05916791	0.16070647
0.61749316	0.57803637	0.15893994
0.11625867	0.31730803	0.12978755
0.12079567	0.82308254	0.11032926
0.1028065	0.06120926	0.64228683
0.09101803	0.58032233	0.62887037
0.62386184	0.33220855	0.64404124
0.62013572	0.84035426	0.64331225
0.61612451	0.05981035	0.15673308
0.61459894	0.57780904	0.15367617
0.1159479	0.31490257	0.12709308
0.11707171	0.82519771	0.12153584
0.09678041	0.06272298	0.64782609
0.09090506	0.57760029	0.62952651
0.62377785	0.33183634	0.64463564
0.61649166	0.83533982	0.64629223
0.6224208	0.06061151	0.15028381
0.61216038	0.57598824	0.13990477
0.11340673	0.3111231	0.12344764
0.11056001	0.82629788	0.12528836
0.0957698	0.06463789	0.65166714
0.09780046	0.57521546	0.63130229
0.62279429	0.32847772	0.64319304
0.61336461	0.83206047	0.64724216
0.63182893	0.0606488	0.14346868
0.61110767	0.57293054	0.12761113
0.11040685	0.30761702	0.121312
0.10376101	0.82534605	0.12582409
0.10033297	0.06594862	0.64929039
0.10643402	0.57509765	0.63498181
0.62252199	0.32265299	0.64008688
0.61721589	0.8317385	0.64518667
0.63900208	0.059799	0.1357653
0.61150839	0.57013113	0.12451952
0.10838938	0.30699642	0.12244598
0.10221543	0.82296589	0.12597631
0.1075319	0.06643411	0.6439309
0.11387682	0.57595922	0.63971895
0.62473777	0.31693211	0.63540633
0.62635595	0.83247959	0.64256056
0.63969302	0.05983145	0.12845629
0.61591121	0.56789751	0.12772034
0.10978154	0.30946349	0.12538153
0.10596033	0.82230236	0.12660941
0.11512801	0.06647892	0.64227719
0.11945668	0.57603979	0.64419928
0.62929574	0.31307769	0.62998947
0.63526914	0.83197549	0.64220135
0.63500257	0.06211668	0.12234538
0.62661384	0.56715051	0.13354503
0.11450525	0.31367044	0.12840104
0.11395086	0.82348207	0.12838356
0.12169392	0.06681214	0.64403761
0.12452865	0.57458946	0.6471069
0.63546336	0.31116619	0.62543474
0.64217297	0.83058674	0.64648501
0.62811532	0.06471511	0.11770558
0.63808719	0.56724958	0.13590492
0.12094403	0.31825928	0.13027456
0.12284064	0.82581986	0.12855415
0.12625737	0.06721704	0.64525957
0.12976233	0.57152223	0.6481183
0.63995893	0.31051801	0.62293169
0.64483051	0.82753513	0.65332784
0.62240321	0.06486398	0.11703545
0.64657036	0.56743389	0.13280745
0.12599696	0.32112747	0.13068068
0.12807709	0.82882314	0.12793263
0.12811762	0.06638056	0.6445804
0.13447317	0.56937223	0.64868035
0.64134519	0.310449	0.62323043
0.64303382	0.82310047	0.65863381
0.62070333	0.06289947	0.11910085
0.65001006	0.56773648	0.12576316
0.12783427	0.32140478	0.12906825
0.12856686	0.8304879	0.13075674
0.12670059	0.0645622	0.64185924
0.13661367	0.56980113	0.6490734
0.64062359	0.31023882	0.62633552
0.64041855	0.81912401	0.66121892
0.62517799	0.05921575	0.12013848
0.64819792	0.56837009	0.11671837
0.12910982	0.31974251	0.12511527
0.12733005	0.83112168	0.1366946
0.12429879	0.06225476	0.63803051
0.13759312	0.57214476	0.64969338
0.63717976	0.31089042	0.6316193
0.63918028	0.81646643	0.6584381
0.63313275	0.05473738	0.1174203
0.64492002	0.56878743	0.11127401
0.13105409	0.31721412	0.12068406
0.12777181	0.83164246	0.14505171
0.12480281	0.06004114	0.63530857
0.13851048	0.57514791	0.64920603
0.63485007	0.31223532	0.63747626
0.64258928	0.81598094	0.6500398
0.64304021	0.05243468	0.10827784
0.64525103	0.56907907	0.11010845
0.13390399	0.31583379	0.11901189
0.13201793	0.83268984	0.15292833
0.12996566	0.05911737	0.63510845
0.14068726	0.57687501	0.64547611
0.63560392	0.31225453	0.63991954
0.64983982	0.81698018	0.63928052
0.65163277	0.05271033	0.09838525
0.65383314	0.56927248	0.1105279
0.13579059	0.3159948	0.12180482
0.138958	0.83452108	0.15610883
0.13767055	0.05938872	0.63714793
0.14636596	0.57544238	0.6423416
0.63957987	0.30988169	0.63666014
0.65589583	0.81800535	0.63083697
0.65700729	0.05482552	0.09457277
0.66503781	0.56971064	0.11524911
0.13529793	0.31812922	0.12858262
0.14531205	0.83581227	0.15633812
0.14393078	0.05941999	0.63894316
0.15305642	0.57181439	0.64319071
0.64967551	0.30530163	0.63049704
0.65953099	0.81881273	0.62749211
0.6587284	0.05785873	0.09826246
0.6732721	0.57087477	0.12231036
0.13456293	0.32304297	0.13699409
0.14953616	0.83713341	0.1530224
0.14555367	0.0589468	0.63934197
0.15823529	0.56775977	0.64680657
0.6631136	0.29995714	0.6254391
0.65883424	0.81851538	0.62726792
0.65672442	0.06011827	0.10806213
0.67570556	0.57196003	0.12803924
0.13521562	0.3284785	0.14404321
0.15060483	0.83861977	0.14623692
0.14271287	0.05837544	0.63863209
0.15936588	0.56456581	0.64994985
0.6749152	0.29573835	0.62379688
0.65650867	0.81622266	0.62819377
0.65377308	0.06152098	0.11250254
0.67377355	0.5716685	0.12967737
0.13832385	0.3335634	0.14712598
0.14827861	0.83858762	0.14258055
0.13933598	0.057058	0.63739026
0.15416083	0.56385369	0.6495797
0.68171283	0.29291339	0.62650943
0.65727277	0.814057	0.63005941
0.6518453	0.06175882	0.1058378
0.67036946	0.56964855	0.12525991
0.14501714	0.33681146	0.14590171
0.14695899	0.83828655	0.14336104
0.14164688	0.05525432	0.63678199
0.14805407	0.56558132	0.64647778
0.67933862	0.29210662	0.62914406
0.66026858	0.81038712	0.63208495
0.65045936	0.06083587	0.09541416
0.66801444	0.566548	0.11888032
0.15302222	0.33727439	0.14293586
0.14816848	0.83779162	0.14861441
0.14950291	0.05467447	0.63619602
0.14709228	0.56718302	0.64036022
0.67220573	0.29364435	0.62708784
0.66536933	0.80604821	0.63316279
0.64967576	0.05949129	0.08835676
0.66813203	0.56516698	0.11411214
0.15858214	0.33689288	0.13990601
0.15138522	0.8363855	0.1522961
0.15655237	0.05601423	0.63573789
0.15257524	0.56716861	0.63336134
0.66620959	0.29618059	0.6247252
0.67029287	0.80345779	0.63338346
0.64846989	0.05871311	0.09047394
0.66612791	0.56606255	0.11153592
0.16133711	0.33433164	0.14132048
0.15603628	0.83679779	0.15221256
0.16008447	0.05817414	0.63407424
0.1630864	0.56546986	0.62835264
0.66467204	0.29901553	0.6250046
0.67310234	0.80352745	0.63111331
0.64722667	0.05878294	0.09918481
0.66149236	0.56842948	0.11314058
0.1607859	0.32896616	0.14674665
0.16028606	0.83756375	0.14886889
0.15676761	0.06019683	0.62994893
0.17185237	0.56422709	0.62607575
0.668286	0.3009566	0.62708109
0.67496874	0.80731406	0.62515852
0.64823674	0.05937359	0.10822872
0.65707122	0.57151741	0.11538826
0.15837075	0.3232103	0.14839248
0.1628126	0.83800942	0.14139117
0.14702215	0.06102847	0.6249356
0.16989114	0.56505965	0.62763517
0.67300327	0.30052927	0.62800103
0.67491208	0.81316114	0.617358
0.6512928	0.05992777	0.11269228
0.65472133	0.57381213	0.11485429
0.15966019	0.31853891	0.14496211
0.16163721	0.83865044	0.13238731
0.13665664	0.06023662	0.62014744
0.16047839	0.56867205	0.63171486
0.67631334	0.29829716	0.62532717
0.67459457	0.8175121	0.61067362
0.65494482	0.06015775	0.11018582
0.65595519	0.57410153	0.11178811
0.16789599	0.31616265	0.13738817
0.15623263	0.83839706	0.12372834
0.13084311	0.05838739	0.6176618
0.14977638	0.57378662	0.63617355
0.67634524	0.29658487	0.62231861
0.6725537	0.81881529	0.60705015
0.65927215	0.06049029	0.10247691
0.66138973	0.57318993	0.10782068
0.17770685	0.31624529	0.13104134
0.15046434	0.83842352	0.11567318
0.12789135	0.05750078	0.6193564
0.14233384	0.57583658	0.64299785
0.67150627	0.29650145	0.61957852
0.66609126	0.81651815	0.60762345
0.66252144	0.06073788	0.09531537
0.67050319	0.57138645	0.10533865
0.18109537	0.31762345	0.13016792
0.14718647	0.83897109	0.10989392
0.12643472	0.05865188	0.62299891
0.1478134	0.57534347	0.65181895
0.66392531	0.29874694	0.61720083
0.66051796	0.81253983	0.61229355
0.66521433	0.06028423	0.09540331
0.67790405	0.56930143	0.10495522
0.1780341	0.31960412	0.13208507
0.14619177	0.83937461	0.10670866
0.12725221	0.06153195	0.62878995
0.15712873	0.5735285	0.66133341
0.65720506	0.30281654	0.61754458
0.65719225	0.81001821	0.61939213
0.66858909	0.05989764	0.10208093
0.67935024	0.56832706	0.10505111
0.17395791	0.32155382	0.13277721
0.14638547	0.84060745	0.10363835
0.13077671	0.06547302	0.63455553
0.16234692	0.57187432	0.67017632
0.65513605	0.30660982	0.6192506
0.65610706	0.81072284	0.625148
0.67021772	0.06054688	0.10978656
0.67516303	0.56886692	0.10529426
0.1719896	0.32309309	0.12852231
0.14470397	0.84057683	0.10235164
0.1376273	0.06869603	0.63529015
0.16172855	0.57138261	0.67032403
0.66085982	0.30984473	0.62129076
0.65871539	0.81482632	0.62538894
0.66811771	0.06165993	0.11255883
0.66520947	0.5717988	0.10544525
0.17088051	0.32395839	0.12001848
0.14003069	0.83850146	0.10410735
0.14403795	0.06871702	0.63564701
0.15615153	0.57153809	0.66167791
0.66823726	0.31351892	0.62243555
0.66210803	0.82183888	0.6201245
0.66282763	0.06248223	0.10930207
0.65427857	0.57603653	0.10683349
0.16951842	0.32268479	0.11246463
0.13636818	0.83543864	0.10800516
0.14520582	0.06571352	0.63862527
0.15058636	0.57246803	0.6522213
0.66875685	0.31824832	0.62211758
0.66496346	0.82867398	0.61233153
0.65563973	0.06261867	0.1048153
0.64905624	0.5796675	0.1129461
0.16643115	0.32000413	0.11014207
0.13796891	0.83156297	0.11219191
0.14082943	0.0617206	0.64170507
0.14720322	0.57394139	0.64431017
0.66144701	0.32313379	0.62420235
0.66693378	0.83388103	0.60727464
0.64969193	0.06250248	0.10334762
0.65307134	0.58140581	0.12375898
0.15989243	0.3186118	0.11366226
0.14146398	0.82771576	0.11304367
0.13307395	0.06041987	0.64556207
0.14604404	0.57524399	0.63964087
0.65076248	0.32634528	0.62823024
0.66659049	0.83708266	0.60877592
0.64715539	0.06341611	0.11033254
0.66263372	0.58046775	0.13669675
0.15143632	0.3194776	0.11984059
0.1436344	0.82511832	0.11328661
0.12755042	0.06252931	0.64801627
0.14676607	0.57639255	0.63728602
0.6433296	0.32745197	0.63365283
0.66460804	0.83765131	0.61514045
0.64916541	0.06542652	0.12339937
0.66910472	0.57816973	0.14472814
0.14333231	0.3222201	0.12464359
0.14196748	0.82408884	0.11310358
0.13009579	0.06577369	0.64666231
0.14731196	0.57650294	0.63435463
0.6429241	0.32667507	0.64186446
0.65977997	0.83727903	0.62289686
0.65605854	0.06777452	0.13519444
0.67078219	0.57693483	0.14276814
0.13590143	0.32504079	0.12558894
0.13597491	0.82569407	0.11350512
0.13589016	0.06827734	0.64350633
0.14541683	0.5765473	0.63289319
0.64625729	0.32523856	0.64919182
0.6491911	0.8377192	0.62781644
0.66065091	0.06975541	0.13968937
0.66785247	0.57655655	0.1357474
0.1294748	0.32565947	0.1243051
0.13007631	0.82931667	0.11400441
0.14090916	0.06876141	0.63778563
0.14340083	0.57753778	0.63329294
0.6492953	0.32463667	0.65137124
0.63832402	0.8387901	0.62889682
0.66047309	0.07016104	0.13468233
0.66192823	0.57661074	0.12785838
0.12434866	0.32501675	0.12367483
0.12907943	0.83302103	0.11438039
0.14324982	0.06770911	0.63165696
0.14246567	0.57956845	0.63209743
0.6480401	0.3251554	0.65040305
0.63222247	0.83950374	0.62890109
0.65643943	0.0684992	0.12486107
0.65543487	0.57679431	0.12463057
0.11865273	0.32333773	0.12781416
0.13332533	0.83672346	0.11573784
0.14177086	0.06641975	0.62834299
0.14320979	0.58127048	0.63079224
0.64084101	0.32570717	0.64751859
0.63206766	0.83869972	0.6297874
0.65099187	0.06644556	0.11831335
0.65019414	0.57703857	0.12727744
0.11318345	0.32163999	0.13558657
0.13935558	0.83924818	0.11847669
0.13847379	0.06533709	0.62834478
0.14546627	0.58101678	0.6291374
0.63359396	0.32549968	0.64646041
0.63752643	0.83681095	0.63334923
0.6464786	0.06579193	0.11861386
0.6476971	0.57740873	0.13149369
0.11132149	0.32076606	0.14134027
0.14346901	0.84003321	0.12259225
0.13510907	0.06436432	0.63236922
0.1444177	0.57828518	0.62631993
0.63160928	0.32443012	0.64720751
0.64166783	0.83468919	0.64136381
0.64145408	0.06691432	0.12566984
0.64534171	0.57795654	0.13376863
0.11293632	0.32014893	0.14244631
0.14204444	0.83935136	0.12611326
0.13161085	0.06333862	0.63765109
0.13967745	0.57419214	0.62348499
0.63578929	0.32240987	0.64684798
0.64159294	0.83375882	0.65040192
0.63307801	0.06867666	0.13645204
0.63997403	0.57876097	0.13182478
0.11545934	0.31970796	0.13963267
0.13512133	0.83666272	0.12886454
0.12783093	0.06343371	0.6388539
0.13153525	0.57263242	0.62100938
0.64303663	0.32036795	0.64897191
0.6385213	0.83451773	0.65720958
0.6230103	0.06930379	0.14552286
0.63108632	0.57862321	0.12666753
0.11711727	0.31956462	0.13510916
0.12523809	0.83364266	0.13083863
0.12200359	0.06513858	0.6373158
0.12313707	0.57391312	0.62002924
0.64725486	0.31974815	0.65101021
0.63318638	0.83566235	0.65949128
0.61350114	0.06799999	0.1501524
0.62390193	0.57770675	0.12298332
0.11754588	0.31955947	0.13193247
0.11672955	0.8314557	0.13164853
0.1146675	0.06769602	0.63434862
0.11833239	0.57645767	0.6217715
0.64432353	0.32013816	0.65069721
0.62949908	0.83677076	0.6566017
0.60790578	0.06626093	0.15202505
0.6238517	0.57664111	0.12129967
0.1132875	0.31991797	0.13141331
0.11369502	0.82996138	0.13116902
0.10943369	0.0699319	0.63186142
0.11626791	0.57913518	0.62629857
0.63524986	0.32076212	0.64947076
0.62946508	0.83750109	0.65313434
0.60802904	0.06599863	0.15057334
0.62760857	0.57638673	0.12181741
0.10691358	0.32001366	0.13199063
0.11645029	0.82976606	0.13036828
0.1070696	0.07025253	0.63045742
0.11604436	0.58081645	0.63366364
0.62444453	0.32053851	0.64537474
0.63100227	0.83740782	0.65028448
0.61199434	0.06675086	0.14752037
0.62892667	0.57740764	0.1243796
0.10413053	0.31916462	0.13093738
0.12190259	0.83025581	0.13041638
0.10809001	0.06847265	0.63203345
0.11562747	0.58199577	0.64127974
0.61600758	0.32003294	0.63963424
0.63222987	0.83714419	0.6480353
0.61728801	0.06808584	0.1428295
0.62272957	0.57887947	0.12519908
0.10374853	0.317953	0.1260776
0.12284097	0.82989549	0.13168837
0.11060171	0.06534702	0.63652413
0.11300842	0.58261809	0.64461772
0.61311003	0.32099899	0.63656708
0.63155586	0.83670571	0.64798181
0.61995534	0.06886918	0.13535433
0.61206963	0.58046708	0.12421404
0.10489761	0.316591	0.11817126
0.11648146	0.82844861	0.13354203
0.11327065	0.0619227	0.64175328
0.10943101	0.58215229	0.64505278
0.61419245	0.32331846	0.63584144
0.62821753	0.83608827	0.64876333
0.6201729	0.06793738	0.12737324
0.60191463	0.58155382	0.12461404
0.10705831	0.3158014	0.11202826
0.1072437	0.8262607	0.13553746
0.11666237	0.05976854	0.64714889
0.10500951	0.5810014	0.64294583
0.61689338	0.32737108	0.63636306
0.62433686	0.83539057	0.65066444
0.61939173	0.06613763	0.12253381
0.5961091	0.58090887	0.13043163
0.10781638	0.3153399	0.1090645
0.10032865	0.82370335	0.13619571
0.11875218	0.05953571	0.650839
0.10146681	0.57865912	0.64077188
0.61925153	0.33306871	0.63792978
0.62108031	0.83491079	0.65467938
0.61969278	0.06509062	0.12609883
0.59657373	0.57927465	0.14163351
0.10704978	0.31404053	0.11039093
0.10042606	0.82123591	0.13435532
0.11861951	0.05987801	0.65165163
0.09980513	0.57494873	0.64091988
0.61926864	0.33777546	0.63874467
0.61875397	0.83697126	0.66009954
0.62035478	0.06563773	0.13512049
0.60088268	0.57695241	0.15228928
0.10584338	0.31145424	0.11488916
0.10515296	0.81899653	0.13539806
0.11531761	0.06058455	0.65007504
0.09682724	0.57130382	0.64340455
0.61763505	0.33973889	0.63990987
0.61669923	0.84090538	0.66722512
0.61969536	0.06754151	0.14327236
0.60637642	0.57488178	0.15935181
0.10411283	0.30652947	0.1179593
0.1085868	0.81734311	0.13856453
0.10991542	0.06160244	0.64594628
0.09254667	0.56903793	0.64585821
0.61489993	0.33858194	0.64035925
0.61211032	0.84551691	0.67362105
0.61741309	0.06920677	0.14675023
0.61031322	0.57360024	0.15912263
0.10367292	0.30220975	0.11756514
0.10769122	0.81632963	0.14105868
0.1063259	0.06250432	0.64034874
0.08638473	0.56997168	0.64416265
0.61127996	0.33551811	0.6394133
0.60537465	0.84911321	0.67550674
0.61345977	0.06920321	0.14499156
0.61244123	0.57221186	0.15288862
0.1035103	0.30066313	0.11484942
0.10270957	0.81628846	0.14446511
0.10626201	0.06365132	0.63573857
0.08026246	0.57337059	0.64100948
0.60834571	0.33206282	0.63967646
0.59873804	0.85061058	0.67316456
0.60978245	0.06535756	0.13661454
0.61219626	0.57168512	0.14654137
0.10113539	0.30024356	0.1110835
0.09832853	0.81833337	0.14627668
0.1092011	0.06446558	0.63332531
0.07638693	0.57528557	0.63866274
0.60689486	0.32925384	0.63908894
0.59386129	0.8490703	0.66598714
0.60883964	0.06086453	0.1283063
0.61027577	0.57318207	0.14449304
0.09919927	0.3010756	0.11042387
0.09599704	0.82049618	0.14725562
0.11546767	0.06472845	0.63549769
0.07346242	0.57448486	0.63666649
0.60565089	0.32784011	0.63797941
0.59525683	0.84553576	0.65761459
0.61341059	0.06031159	0.12518885
0.60850383	0.57598832	0.14706479
0.10018001	0.30330401	0.11464743
0.09300931	0.82125374	0.14678639
0.12135518	0.06386547	0.63933567
0.07277981	0.57096043	0.63564794
0.60510896	0.32784467	0.63740512
0.60470457	0.84198323	0.65120914
0.62188575	0.06403232	0.12802554
0.60641508	0.57822217	0.14921487
0.10619355	0.30621267	0.12001566
0.09063084	0.82104168	0.14298889
0.12597701	0.05987571	0.64233884
0.07481388	0.56658729	0.63520154
0.60538448	0.32867697	0.63624861
0.61552828	0.8403517	0.64632487
0.63129254	0.06819318	0.13403515
0.60386715	0.57782369	0.14493287
0.11543334	0.30962235	0.12368013
0.09145563	0.82037891	0.13908571
0.13041924	0.05512559	0.64456749
0.07921829	0.56496529	0.63429971
0.60750191	0.32956437	0.6380191
0.62347556	0.84027035	0.64526181
0.63734919	0.06999921	0.13720788
0.60217559	0.57466074	0.13551561
0.11892766	0.31222729	0.122726
0.09540402	0.8203064	0.13577835
0.13326717	0.05286868	0.64548825
0.0871428	0.56669154	0.63254308
0.61426879	0.32999239	0.64284553
0.62523423	0.83983847	0.64868417
0.63759182	0.06868512	0.13856171
0.60210044	0.57210813	0.12392664
0.11280398	0.31363342	0.11577615
0.10098149	0.82042167	0.13035303
0.13172998	0.05178568	0.64386944
0.09573524	0.57044528	0.62883928
0.62053905	0.32896413	0.64640886
0.62275419	0.83761426	0.65361528
0.63683184	0.06542704	0.14051582
0.60344643	0.57176594	0.11251943
0.10467782	0.31436303	0.10829962
0.10703659	0.82011309	0.12481295
0.12418613	0.05248335	0.64067843
0.10228818	0.57432164	0.62442805
0.6221263	0.32621648	0.64720683
0.61954831	0.83411428	0.6584451
0.63655495	0.06126483	0.14120971
0.60765198	0.57292264	0.10418983
0.09577609	0.31390865	0.10751856
0.11300738	0.82102939	0.11946242
0.11142158	0.05606563	0.63482669
0.10713469	0.57505644	0.62179211
0.61926547	0.32154074	0.64531658
0.61719354	0.83034665	0.65970629
0.63910502	0.05789747	0.14070765
0.6124632	0.57403781	0.10272248
0.09324489	0.31346153	0.11286417
0.11679588	0.82213436	0.11479916
0.09934634	0.06085464	0.62914538
0.10778959	0.57361503	0.62093112
0.6133072	0.31564107	0.64338676
0.61798611	0.82702456	0.65707074
0.64754512	0.05575507	0.1388332
0.61589006	0.5739583	0.11073281
0.09636437	0.31449444	0.12148693
0.11775999	0.82412812	0.11424004
0.09540544	0.06532195	0.62745049
0.10594736	0.57186472	0.62226396
0.60810919	0.30995521	0.64294138
0.62162894	0.82431764	0.65329365
0.65474977	0.05517397	0.13408013
0.61866125	0.5722249	0.12091147
0.10067865	0.31678747	0.12918785
0.11535712	0.82742642	0.11692904
0.10406491	0.06778147	0.63034345
0.10604305	0.57031737	0.624611
0.60569982	0.30638621	0.64238014
0.62528419	0.82262853	0.64764739
0.65710378	0.05577545	0.13009697
0.62099794	0.57034485	0.12707358
0.10602252	0.31918355	0.13385897
0.11187796	0.82908863	0.1239097
0.12003085	0.06753658	0.63697482
0.10846044	0.57056152	0.6266995
0.60644977	0.30553103	0.64365499
0.62831171	0.8217342	0.6433816
0.65393824	0.05662782	0.12869151
0.62641028	0.56910547	0.12745403
0.11057958	0.31981358	0.13568349
0.11005672	0.82996972	0.13415464
0.13263178	0.06586289	0.64370916
0.1135787	0.57219314	0.6304707
0.61137982	0.30659299	0.64567728
0.63122893	0.82038799	0.64157188
0.64637208	0.0580666	0.13060516
0.6340768	0.56815258	0.12319543
0.11558901	0.31793647	0.13339432
0.11088132	0.8304051	0.14141456
0.13398385	0.0633453	0.64720143
0.11900326	0.57469797	0.63506174
0.61948141	0.30776769	0.64678007
0.63383625	0.81853477	0.63907653
0.63988246	0.05966204	0.13685188
0.6424338	0.56772311	0.11676369
0.12145391	0.31569654	0.13050135
0.11516826	0.83030976	0.14488771
0.12605376	0.06069414	0.64619483
0.12486465	0.57739361	0.63932318
0.62883546	0.30902523	0.64638874
0.63642806	0.8165771	0.63652857
0.6358558	0.0598548	0.14158362
0.64999128	0.56821483	0.11304267
0.12632272	0.31443467	0.12838097
0.12309126	0.83124578	0.14351366
0.11622919	0.05873701	0.64114849
0.132686	0.5786517	0.64147298
0.63741857	0.31014638	0.64243313
0.63994023	0.8149203	0.63353914
0.6333832	0.05996877	0.14098403
0.65335532	0.56843708	0.11234517
0.13061183	0.31459109	0.12488382
0.13096449	0.83195102	0.13642285
0.11365227	0.05777089	0.63867017
0.14041914	0.57699705	0.63808506
0.64176089	0.31003745	0.6371922
0.64435124	0.8151426	0.62983327
0.63326333	0.05986215	0.13635654
0.6526176	0.56896719	0.1153775
0.13214082	0.31576412	0.1225394
0.13738519	0.83125129	0.12854759
0.11968033	0.05904249	0.64196671
0.14659035	0.57330051	0.63222879
0.64194371	0.30972772	0.63395731
0.6476737	0.81715082	0.62842442
0.6353363	0.05879081	0.12809066
0.65039612	0.56973655	0.12073118
0.13003704	0.31649916	0.12218927
0.13994019	0.83038765	0.12272153
0.12816654	0.0615217	0.64795903
0.1500978	0.56958812	0.62839273
0.64009273	0.3100625	0.63297167
0.64912505	0.81971519	0.6290084
0.63909058	0.05736062	0.12273016
0.64826314	0.56989393	0.12667148
0.12764274	0.31679138	0.12454562
0.14050563	0.82941338	0.12340217
0.1341627	0.06386282	0.6532194
0.14710995	0.56751576	0.62767116
0.64030731	0.31054656	0.63518278
0.64868582	0.82190312	0.63081914
0.64580476	0.05533957	0.12237367
0.64792243	0.56937994	0.1326277
0.12788207	0.31742743	0.1310091
0.1426996	0.82911894	0.12957202
0.13278076	0.06556661	0.65581165
0.13977259	0.56798062	0.63156907
0.64513233	0.31126786	0.63862124
0.64735715	0.82348834	0.63226851
0.65126099	0.05476962	0.12307497
0.64941816	0.56769004	0.13702977
0.13459622	0.31901525	0.13706271
0.14540284	0.83053427	0.13307347
0.12442621	0.06448571	0.65513139
0.13341292	0.57028948	0.63816293
0.65179972	0.31211018	0.64114219
0.64700694	0.8250261	0.63088826
0.65164152	0.05690104	0.12368632
0.65181388	0.56627475	0.13876565
0.1477895	0.32197604	0.13989356
0.148584	0.83246338	0.1330978
0.11662462	0.0614681	0.65124245
0.13251086	0.57212529	0.64673217
0.65778628	0.31305791	0.64215818
0.64716694	0.82678606	0.62648868
0.6439436	0.06043475	0.12220184
0.65437851	0.56605383	0.13883249
0.15981116	0.32457964	0.13920669
0.15213691	0.83442815	0.13096108
0.11397503	0.05851604	0.64607591
0.13851716	0.57260989	0.65585208
0.66336231	0.31429374	0.63779777
0.64850693	0.82867091	0.62005644
0.63042209	0.06435622	0.1179231
0.65667712	0.56664214	0.13738056
0.16437764	0.32536552	0.1366003
0.15265893	0.83488571	0.12749187
0.11743289	0.05722171	0.64125231
0.14726857	0.57121077	0.66278515
0.66791241	0.31591438	0.63162877
0.65125651	0.82991809	0.61656847
0.61927073	0.06638719	0.11327655
0.65943342	0.56940844	0.13476176
0.15851756	0.32479924	0.13506553
0.14998957	0.83313649	0.12558957
0.12507461	0.058233	0.63640261
0.15392766	0.56936726	0.66757449
0.67257151	0.31778988	0.62856462
0.65537591	0.83031818	0.6197908
0.61597141	0.06524746	0.11020097
0.66284516	0.57318844	0.13208226
0.14702388	0.32306806	0.13557728
0.14533325	0.83163302	0.12594635
0.13111895	0.06024624	0.6314629
0.15522242	0.5678204	0.66823686
0.67781848	0.31901419	0.62833533
0.66077783	0.83045613	0.62493064
0.62117128	0.06276548	0.11306392
0.66688504	0.57553644	0.12827099
0.13973173	0.32101021	0.13779826
0.14205324	0.83101388	0.126438
0.13122992	0.06160074	0.6269422
0.15087465	0.56728014	0.66330941
0.68093416	0.31873794	0.63179733
0.66454021	0.83096924	0.62934053
0.63126709	0.06119109	0.12019515
0.67149561	0.57754276	0.1258703
0.13946045	0.31935825	0.14193165
0.14045205	0.83175532	0.12567974
0.12695714	0.06185731	0.62198762
0.14400631	0.56855983	0.65452703
0.68039351	0.31680378	0.63821466
0.66338509	0.83156014	0.63295531
0.63436694	0.06249611	0.12569125
0.6727024	0.57749533	0.12499048
0.14275458	0.31895605	0.14341997
0.1382719	0.83427987	0.12247661
0.12251412	0.06136249	0.61808216
0.13888542	0.57070006	0.64471292
0.67604835	0.31395021	0.64273747
0.65770254	0.83274958	0.63577027
0.63211432	0.06605193	0.12663832
0.66980456	0.576341	0.12514901
0.1458967	0.32047633	0.14080017
0.13540555	0.83537748	0.11782229
0.12590139	0.06079693	0.61823238
0.13743867	0.57318	0.63825263
0.66633237	0.31139797	0.64192622
0.64972514	0.83410101	0.63751804
0.63166259	0.06995272	0.12086713
0.66529206	0.57733846	0.12730239
0.14464194	0.32464764	0.13604853
0.13199329	0.83506558	0.11492813
0.13244507	0.06136317	0.62066389
0.14083334	0.57655506	0.63687503
0.65421297	0.31082316	0.6367205
0.6447219	0.83381701	0.63681264
0.6395573	0.07325066	0.11021255
0.66156087	0.57924998	0.12871435
0.14156411	0.32952266	0.12925125
0.12795224	0.83508884	0.11606559
0.13683495	0.06249076	0.62268249
0.14576036	0.58140679	0.64103818
0.64486773	0.31270661	0.63123558
0.64426847	0.83310746	0.63514886
0.65186005	0.07387836	0.1007013
0.66158622	0.58201219	0.12682885
0.14173098	0.33320455	0.12412163
0.12537132	0.83621395	0.11993189
0.13852018	0.06298023	0.62492249
0.14729128	0.58725619	0.65228872
0.64009035	0.31635836	0.62581234
0.6444796	0.83218686	0.63402388
0.66113192	0.07174522	0.09595531
0.66348376	0.58480348	0.12262823
0.14469236	0.3353834	0.12919052
0.124614	0.83881747	0.12224384
0.13837226	0.06341172	0.62610536
0.14458247	0.59305516	0.66506548
0.63913767	0.32032225	0.62107029
0.64418686	0.83074743	0.6317771
0.66147139	0.06981377	0.09632584
0.66383405	0.58678551	0.11605354
0.14886908	0.33612803	0.13752963
0.12587816	0.84273364	0.11891462
0.14003107	0.06302647	0.62615594
0.14155317	0.59642314	0.6720367
0.63897314	0.32347726	0.61771232
0.64237163	0.82905259	0.62955754
0.65468518	0.06931506	0.10326156
0.65839126	0.58851551	0.11088932
0.15044571	0.33627037	0.14288864
0.13060327	0.84650856	0.11396643
0.14754593	0.06304355	0.62695688
0.14350973	0.59611273	0.66883356
0.63859974	0.32749634	0.61680281
0.63954917	0.82734247	0.62872016
0.64596139	0.07001117	0.10736426
0.64829782	0.58911944	0.10925261
0.14761336	0.33560565	0.14207639
0.13741224	0.8484376	0.11068892
0.1577347	0.06573783	0.62803533
0.15314343	0.59398626	0.65538249
0.63820017	0.33141206	0.61860364
0.63965146	0.82790225	0.62791624
0.64224552	0.07093075	0.1054121
0.63968308	0.58782	0.1093452
0.14313578	0.33415998	0.13787079
0.14121428	0.84812748	0.11281897
0.16494845	0.07021608	0.63081068
0.16192804	0.59105322	0.63792342
0.63794193	0.3344203	0.62365584
0.64285725	0.83311825	0.62770206
0.64583992	0.07163996	0.09955488
0.63607849	0.58567235	0.11412043
0.13898796	0.33248003	0.13285067
0.13993757	0.8460232	0.12164984
0.16497732	0.07516381	0.63407402
0.16215697	0.58971849	0.62304738
0.63902224	0.33541455	0.63055365
0.64584363	0.8406257	0.62743275
0.65259058	0.07235203	0.09202882
0.6373135	0.5824971	0.11775361
0.13568955	0.33085803	0.12627461
0.13454481	0.844416	0.13513938
0.15902017	0.07904121	0.63488517
0.15754128	0.58965247	0.61622219
0.64253636	0.33342686	0.63564971
0.64659651	0.84681497	0.6266419
0.65853136	0.07372037	0.08885503
0.64136846	0.57940278	0.11613984
0.13301953	0.33041406	0.11969297
0.12940515	0.84467247	0.14616366
0.15142744	0.08011974	0.6320143
0.15008264	0.58823963	0.61791045
0.64690007	0.33010841	0.63620737
0.6445978	0.84764122	0.62718635
0.66218294	0.07525455	0.0906779
0.64318848	0.57894265	0.11482476
0.12963498	0.3314541	0.11513923
0.12716629	0.84612109	0.14773521
0.14490026	0.07935569	0.62515943
0.14259094	0.58583975	0.62013319
0.64981486	0.32653171	0.63400538
0.64177519	0.84448443	0.62855287
0.6634882	0.07569411	0.09467471
0.63979272	0.57992848	0.11421265
0.12604096	0.33287189	0.11263098
0.12876178	0.84787932	0.14129978
0.14120769	0.07721656	0.61887332
0.13544753	0.58180386	0.62010135
0.65009228	0.32420419	0.63186536
0.64019642	0.84004293	0.62849953
0.66319771	0.07444305	0.10050019
0.63185395	0.58158789	0.11744503
0.12188537	0.3339811	0.11330265
0.13331181	0.84742285	0.13120265
0.14293536	0.07402999	0.61895368
0.13112878	0.57864802	0.6192323
0.64687471	0.32341369	0.6338553
0.63942493	0.83658259	0.62693694
0.66260743	0.07120131	0.10825508
0.62460396	0.58321456	0.12409886
0.11748693	0.33401304	0.11727441
0.13625746	0.84452013	0.12134294
0.14718934	0.07116272	0.62168931
0.13068259	0.57763566	0.61906342
0.64278248	0.32367326	0.63881817
0.64046259	0.83495465	0.62310655
0.66054093	0.0673889	0.11737434
0.62183973	0.58395306	0.12881057
0.11690652	0.33286939	0.12209663
0.13437027	0.83998604	0.11589377
0.15085602	0.06898265	0.62490345
0.1320031	0.57691703	0.62150357
0.64135146	0.324242	0.64103693
0.64319667	0.83468211	0.62160452
0.65665719	0.06459138	0.12712954
0.62280569	0.58326431	0.1285008
0.11900116	0.33042821	0.1250342
0.13086038	0.83548391	0.11418961
0.15274785	0.06724364	0.62829043
0.13182432	0.57644729	0.62790046
0.64365189	0.32420742	0.64077689
0.64672558	0.83598114	0.62441637
0.65480906	0.06514783	0.13614439
0.62522946	0.58179325	0.12519124
0.12061011	0.32675257	0.12204158
0.1259797	0.8321431	0.11550508
0.1511592	0.06667334	0.63093467
0.12769971	0.57587643	0.63399677
0.64855754	0.32372076	0.63977407
0.64967635	0.83760587	0.62931147
0.65634815	0.06854137	0.14255235
0.62635162	0.58045189	0.1226934
0.12202978	0.32304605	0.11544579
0.11963319	0.82980544	0.11787924
0.14382379	0.06643259	0.63243564
0.12001845	0.57431572	0.63600793
0.65264189	0.32348591	0.63857689
0.64953174	0.83873859	0.63616774
0.65685064	0.07199643	0.14337117
0.62370767	0.57944014	0.12218316
0.12242723	0.32008672	0.11001455
0.11412086	0.82859385	0.11920935
0.13296478	0.06619984	0.63199119
0.11224429	0.57306592	0.6337922
0.65312674	0.32326627	0.63815918
0.64257936	0.83870817	0.64184948
0.65425999	0.07349384	0.13729428
0.61989115	0.5785614	0.12520857
0.12124664	0.31806889	0.1077398
0.11087476	0.8285211	0.11684307
0.12196649	0.06630823	0.63212424
0.10740707	0.57325201	0.62965472
0.64872689	0.32250622	0.63789194
0.63291514	0.83630605	0.6439355
0.64916246	0.07309295	0.12981614
0.61933559	0.57765045	0.13139974
0.12088732	0.31696432	0.11034872
0.10923199	0.82836688	0.11264494
0.11541541	0.06610739	0.63426711
0.11089141	0.57461129	0.63004311
0.64184129	0.32089907	0.63844923
0.62652102	0.8321914	0.64358868
0.6433257	0.07174484	0.12606957
0.62301662	0.57708864	0.13647517
0.12203347	0.31553205	0.1158434
0.10904732	0.82786478	0.11056469
0.11468468	0.06491807	0.63767377
0.11822978	0.57655495	0.63551209
0.63510588	0.31894327	0.64015182
0.62732719	0.8278976	0.63998179
0.63796787	0.06977283	0.12863277
0.63057722	0.57654357	0.13793317
0.12509513	0.31342128	0.12117207
0.1095243	0.82706897	0.11237849
0.11797489	0.06256714	0.64136566
0.1224965	0.57759086	0.64235316
0.6288558	0.31820138	0.64138425
0.63265927	0.82458266	0.63589623
0.63165153	0.06769565	0.1370415
0.64013423	0.57638603	0.13333492
0.1298687	0.31091883	0.12596037
0.11058875	0.82577624	0.11657794
0.12259685	0.06002737	0.64321741
0.12010676	0.57676818	0.64517446
0.62264397	0.32057272	0.64285062
0.63782279	0.82435365	0.63280132
0.62444081	0.06503624	0.14655778
0.64731595	0.57771924	0.12523298
0.13474575	0.30861275	0.12847204
0.1135802	0.82492301	0.12084022
0.12613964	0.05873933	0.6405375
0.11340168	0.57495428	0.64057039
0.61734656	0.32420669	0.64440612
0.63892344	0.82595445	0.63061347
0.61751381	0.06135854	0.15107789
0.64582207	0.57908816	0.11882938
0.13998802	0.3074179	0.1303175
0.1178676	0.8241224	0.12259351
0.12711384	0.05925873	0.63547245
0.10953128	0.57300335	0.63007798
0.61424901	0.32661803	0.64349006
0.63353401	0.8282903	0.63220472
0.61162096	0.05759021	0.1468578
0.6375871	0.5788691	0.11676223
0.14220699	0.30718621	0.13133347
0.12178947	0.82277936	0.12059867
0.1237826	0.06073299	0.63142891
0.10966223	0.57343881	0.62111207
0.6165182	0.32700392	0.64186526
0.62696818	0.83218993	0.63613726
0.60988631	0.05519733	0.1340273
0.6296417	0.57709769	0.12101834
0.14110924	0.30816526	0.12925773
0.12497243	0.82171669	0.11739757
0.11695002	0.06200562	0.6299897
0.11262992	0.57719257	0.61848025
0.62410246	0.32537259	0.63980683
0.62231403	0.83606484	0.63975794
0.61300644	0.05423888	0.12302402
0.62760163	0.57307122	0.12931801
0.13734542	0.30993829	0.12621739
0.12678841	0.82069159	0.11618128
0.11151216	0.06237333	0.63371033
0.11745331	0.58163229	0.6249865
0.63237092	0.32268788	0.6371374
0.61874748	0.83942453	0.64290425
0.61677746	0.05529388	0.12009337
0.63436293	0.56810729	0.13558815
0.12775455	0.31125777	0.12188343
0.12883399	0.81908826	0.11837584
0.11059394	0.06182172	0.64051644
0.12118648	0.58297901	0.63615693
0.63687829	0.31949481	0.6378274
0.61589406	0.84153401	0.64357175
0.61946313	0.05820804	0.12378433
0.64329889	0.56458198	0.13575791
0.11865068	0.31202368	0.11861522
0.13161298	0.81727651	0.12563629
0.11257281	0.06087906	0.64765449
0.1238033	0.57810388	0.64563843
0.63656933	0.31658366	0.64058882
0.61149923	0.84039103	0.64386287
0.61939401	0.05989719	0.13284539
0.6438063	0.56375536	0.13049165
0.11328521	0.31314801	0.12145194
0.1347573	0.81602647	0.13420794
0.11371592	0.0605596	0.65211958
0.12506862	0.56889323	0.65026249
0.6341296	0.31621519	0.64406921
0.60836695	0.83604103	0.64436249
0.61647076	0.05985905	0.13981398
0.63457448	0.56506805	0.12456511
0.11020283	0.3150706	0.1279969
0.13848371	0.81618613	0.14059745
0.10991223	0.0610761	0.65449478
0.12568507	0.56162177	0.64893213
0.63189693	0.31754652	0.64865311
0.61279903	0.83032043	0.64428107
0.61331625	0.05754344	0.13908487
0.62625546	0.56732349	0.12596033
0.11068522	0.31631192	0.13616054
0.1399678	0.81798786	0.14148287
0.10285522	0.06305002	0.6562824
0.12675604	0.56057881	0.6411496
0.63169636	0.31856443	0.64983664
0.62445217	0.82476576	0.64692452
0.61132444	0.05410677	0.13621708
0.62438743	0.5697538	0.13593629
0.11163975	0.31535105	0.14410703
0.13748921	0.82075408	0.14000979
0.09694323	0.06498345	0.65814221
0.12813403	0.5630921	0.63362826
0.63442588	0.31842406	0.64883724
0.64065207	0.82299187	0.65109217
0.61189149	0.05254936	0.13626462
0.6338368	0.57121597	0.14489577
0.11090754	0.31155697	0.15014923
0.13191154	0.82407396	0.13786407
0.09554642	0.06421959	0.66044153
0.12893933	0.56639034	0.63094014
0.63703256	0.31727225	0.64796892
0.65564346	0.82561969	0.65346779
0.61546496	0.05397889	0.14381259
0.64733932	0.5696803	0.14986873
0.10787246	0.30613235	0.15506693
0.12702372	0.82782588	0.13751777
0.09863788	0.05987897	0.66063152
0.1292416	0.56761244	0.63424729
0.63487593	0.31624958	0.64581824
0.66053159	0.82944654	0.6554
0.62071267	0.05793609	0.15434418
0.65402905	0.56627635	0.14864367
0.10184754	0.30128174	0.15598193
0.12597974	0.83100247	0.13971588
0.10232313	0.0549095	0.65862224
0.12728933	0.56902607	0.64634226
0.62464831	0.31545843	0.64905538
0.6533884	0.83275179	0.65466521
0.62890881	0.06086819	0.16036043
0.65427236	0.563391	0.14106134
0.09550618	0.30072707	0.14955867
0.1272496	0.83160262	0.14206996
0.10439161	0.05279626	0.65700583
0.12699882	0.57134886	0.65877383
0.61573545	0.31391131	0.65545753
0.63790142	0.83354915	0.65116732
0.63625593	0.06158421	0.16003263
0.64928269	0.56201494	0.13201654
0.09188735	0.30558933	0.14009292
0.1307107	0.82932869	0.14278965
0.1026165	0.05502931	0.65717638
0.13185901	0.57368302	0.66520349
0.61414853	0.31187605	0.66132471
0.62331994	0.83104988	0.64850316
0.63919195	0.06079409	0.15475602
0.64429646	0.56415044	0.12581952
0.08981221	0.31240753	0.13093692
0.13346552	0.82574174	0.1384624
0.09746203	0.05852556	0.65895834
0.13528173	0.57562475	0.66637154
0.61986626	0.31014028	0.66584752
0.62411304	0.82576712	0.6468866
0.63651073	0.05929193	0.14859688
0.64247374	0.56802448	0.12437455
0.091084	0.31824763	0.12444146
0.13457697	0.82287532	0.13357785
0.09313104	0.06030173	0.6607885
0.13502668	0.57637534	0.66324917
0.62774458	0.30909936	0.66499026
0.63290353	0.8182389	0.64472284
0.62915069	0.05817339	0.14566067
0.64103876	0.56976001	0.12609494
0.09483656	0.32120748	0.12243998
0.13673128	0.82216699	0.13494817
0.09385935	0.05937749	0.66220425
0.13125609	0.57559169	0.65849887
0.63436465	0.30876962	0.65872774
0.64156219	0.81111107	0.6479272
0.62061337	0.05699784	0.14574959
0.63783862	0.56892879	0.12663494
0.09751334	0.32160638	0.12290613
0.1387416	0.82338227	0.14010551
0.09981613	0.05604738	0.6619064
0.12491445	0.57236657	0.65219132
0.63724981	0.30890205	0.64936352
0.64590077	0.80703435	0.65311794
0.61527675	0.05562725	0.14698351
0.63343903	0.56674261	0.12492441
0.10095219	0.32049606	0.1243362
0.1379451	0.82597277	0.14899282
0.10900949	0.05412781	0.65765017
0.11985824	0.56861428	0.64315442
0.63540089	0.30946667	0.63843935
0.6440951	0.80715737	0.65815471
0.61523422	0.05405879	0.1468087
0.62870827	0.56422956	0.12274757
0.10510102	0.31872533	0.12518335
0.13469858	0.82943119	0.15683748
0.11670366	0.05536521	0.65192265
0.118712	0.56719285	0.63428612
0.62994713	0.30939156	0.62900947
0.64128275	0.81097069	0.66158948
0.61651664	0.05184501	0.14124318
0.62728644	0.56305869	0.12306009
0.10862078	0.31755386	0.12638829
0.13103845	0.83271982	0.15982931
0.11772849	0.05811648	0.64862072
0.12339559	0.56887902	0.62764842
0.62392147	0.30767433	0.62184462
0.64212398	0.81520082	0.66283127
0.61823758	0.05040209	0.13232669
0.63190044	0.56260922	0.12761556
0.11364324	0.31801795	0.12900864
0.12783174	0.83498752	0.16007274
0.11565714	0.06133026	0.64692232
0.12971628	0.57188641	0.62563695
0.62081849	0.30644798	0.61676925
0.64517816	0.81765693	0.66496672
0.6197344	0.05050834	0.12490476
0.6397311	0.56099326	0.13610962
0.11860472	0.3196887	0.1318801
0.12485145	0.8352882	0.15933353
0.11452291	0.0634124	0.64489962
0.13373758	0.57317538	0.63370796
0.6225147	0.30630454	0.61539819
0.64791042	0.81888392	0.66742256
0.62113146	0.05154905	0.1205722
0.64531215	0.55884254	0.14405508
0.12084135	0.32246976	0.1344436
0.12263513	0.83232664	0.15656188
0.11743688	0.06401225	0.64348021
0.13276775	0.57133031	0.64484921
0.62829978	0.30705577	0.61615712
0.64697081	0.81991744	0.6683334
0.62338373	0.05313877	0.12113036
0.64700054	0.55709465	0.14889562
0.12254659	0.32478041	0.13603548
0.12231211	0.8283119	0.15120016
0.12396558	0.06366756	0.6419572
0.12933101	0.56938711	0.65301486
0.63523657	0.30842287	0.61999659
0.64162421	0.82089158	0.66600745
0.62635476	0.0537145	0.12347498
0.64275719	0.55748396	0.14884332
0.12558023	0.3249932	0.13506702
0.12326752	0.82558187	0.14304746
0.13092131	0.06269175	0.6412869
0.12547753	0.56907567	0.65753043
0.63987081	0.30956417	0.62709483
0.63632213	0.82145987	0.65918617
0.6304088	0.05295944	0.12406251
0.63573551	0.55967166	0.14377867
0.13152922	0.3229265	0.13160404
0.12528141	0.82573722	0.13406031
0.13527995	0.06142465	0.64343241
0.12138487	0.56918632	0.65807611
0.64206553	0.30957862	0.63393948
0.63490928	0.82008819	0.65017862
0.6347167	0.05181902	0.1223643
0.63508239	0.56174208	0.13746401
0.13852765	0.31911932	0.12723273
0.1275875	0.82870765	0.12703632
0.134877	0.0598533	0.64660041
0.1179021	0.5691753	0.65477263
0.64153255	0.30813475	0.64066023
0.63905246	0.81762885	0.64317534
0.6385238	0.05060675	0.11893529
0.6394591	0.56339946	0.13376859
0.14370105	0.315639	0.12322705
0.12842982	0.83213005	0.12415403
0.1313867	0.05827732	0.64863814
0.11430161	0.56776243	0.64854042
0.63928191	0.30584378	0.64470084
0.64464455	0.81530978	0.63947074
0.64000648	0.05043542	0.11729626
0.64344917	0.5644905	0.13448827
0.14524782	0.31463017	0.12136107
0.12741163	0.83384419	0.12527273
0.12806317	0.05692292	0.64721686
0.11023358	0.56521001	0.6405868
0.63828753	0.30397249	0.64570329
0.64614082	0.81473242	0.63826901
0.63938528	0.0524766	0.11876491
0.64759868	0.56507258	0.13838402
0.14383074	0.31472136	0.12195275
0.12627284	0.8327154	0.12814198
0.12711793	0.0558611	0.64215016
0.10788451	0.56371614	0.63380295
0.63983458	0.30436852	0.64799172
0.64260679	0.81708404	0.63668972
0.64081062	0.05667613	0.12067595
0.64754796	0.5662025	0.14112231
0.14122602	0.31537507	0.12441176
0.12607764	0.82907521	0.12951945
0.12787547	0.05597582	0.63526351
0.10958902	0.56414698	0.63051132
0.64174248	0.30631147	0.65104521
0.63379559	0.82022577	0.63083219
0.64635306	0.06157237	0.12050946
0.64557685	0.56877204	0.14141213
0.14057375	0.3155705	0.12752239
0.12687752	0.82527662	0.12769963
0.12805264	0.05760015	0.62760327
0.11335919	0.56610214	0.63274488
0.64224128	0.30919864	0.65362432
0.6235321	0.82350459	0.62408463
0.65461149	0.06528212	0.11655728
0.64409476	0.57185124	0.13753814
0.14092646	0.31500319	0.12878359
0.12893824	0.8228267	0.12227727
0.12822962	0.05935474	0.62305063
0.11720863	0.56972871	0.64049925
0.64068662	0.31218303	0.65361897
0.61834689	0.82686578	0.61909842
0.66177828	0.0669182	0.11027553
0.64380658	0.57459337	0.13001121
0.14042689	0.31523853	0.12743774
0.13129026	0.82287026	0.11465304
0.12928122	0.06046743	0.62354348
0.11707023	0.57378872	0.64702157
0.63924613	0.31482948	0.64940736
0.61914209	0.82897905	0.61872903
0.66495712	0.06742067	0.10642354
0.6464834	0.57673983	0.12517297
0.14139588	0.31574009	0.12536816
0.13321454	0.82510051	0.10797592
0.1348577	0.06083841	0.62392974
0.11358512	0.57707268	0.64918027
0.64348897	0.31665938	0.64269373
0.62412897	0.82973113	0.6237616
0.66432762	0.06842381	0.10641944
0.64951622	0.57819039	0.12248428
0.14402294	0.31625835	0.12238748
0.13354092	0.82804065	0.10264543
0.14375982	0.06058527	0.62330068
0.11064691	0.57893729	0.64827431
0.65093347	0.3177246	0.63748766
0.6289031	0.82950483	0.62971072
0.66093866	0.07125841	0.10975265
0.65072925	0.57944406	0.12043381
0.14760345	0.31666722	0.12084896
0.13165612	0.8307222	0.09869646
0.15295106	0.06074304	0.62159715
0.11104368	0.57855152	0.64364372
0.65850972	0.31910986	0.63545792
0.63020054	0.82917632	0.63323635
0.6590316	0.07653324	0.1177898
0.64798122	0.58078108	0.11965682
0.15230603	0.31661751	0.12233898
0.12943204	0.83201724	0.09808307
0.15720476	0.06180422	0.61865586
0.11673214	0.57719749	0.640267
0.66322403	0.32130455	0.636908
0.63002346	0.83079379	0.62692301
0.66294737	0.08175765	0.12716528
0.63937261	0.5829048	0.11637754
0.15491705	0.31743448	0.12553796
0.12737848	0.82995295	0.10272867
0.15180737	0.06420975	0.61852488
0.12777988	0.57605637	0.64192027
0.66122628	0.32462727	0.63924076
0.629793	0.83432045	0.61186338
0.67183546	0.08472629	0.13388854
0.63051261	0.58622276	0.11159304
0.15274015	0.31988547	0.1301197
0.12517589	0.82730319	0.10975858
0.14249127	0.06701501	0.62413014
0.14035385	0.57586252	0.64630333
0.65379241	0.32978297	0.63806681
0.63327832	0.83897734	0.59916068
0.68257981	0.08429341	0.13506318
0.62768066	0.59007956	0.10978521
0.14810124	0.32321414	0.13383438
0.12362532	0.82635312	0.11636234
0.13528302	0.06822624	0.6314826
0.15202138	0.57735102	0.65022342
0.64333898	0.33422827	0.63412052
0.64083965	0.84487015	0.59293713
0.68951557	0.08051355	0.13208806
0.62813055	0.59366743	0.11070053
0.14282277	0.32736521	0.1354683
0.122451	0.82681626	0.11882737
0.13438064	0.06899399	0.63841897
0.15790704	0.57906384	0.64799784
0.6373281	0.33746103	0.62891048
0.64656656	0.84910038	0.59202995
0.68661559	0.07684238	0.12938083
0.63087348	0.59579194	0.11355968
0.14025485	0.32898909	0.13599392
0.12248816	0.83013375	0.11695217
0.13789011	0.07064499	0.64041743
0.16145677	0.58044662	0.63911168
0.63890714	0.34110387	0.62364369
0.64960927	0.85077339	0.59475751
0.67535363	0.07585641	0.12795666
0.63420126	0.59684698	0.11629347
0.13999538	0.32670767	0.13353374
0.12596651	0.83344067	0.11362287
0.1412067	0.07296313	0.63558519
0.16583815	0.58126365	0.62700785
0.64426513	0.34372946	0.62101833
0.65261221	0.85210201	0.59914019
0.66024903	0.07838225	0.12769911
0.63598857	0.59794023	0.11622254
0.13911044	0.3239654	0.12723457
0.13069577	0.83368322	0.1100163
0.14192968	0.07680658	0.62884672
0.16961221	0.58092957	0.6167137
0.65298729	0.34632554	0.61656431
0.65622876	0.85285886	0.60710911
0.64742284	0.08340436	0.12991237
0.63676814	0.59832645	0.11594643
0.13657859	0.32200734	0.12104667
0.1347319	0.8349365	0.10757121
0.14237033	0.08021786	0.62282547
0.17303704	0.58049527	0.61268935
0.6645717	0.34812269	0.61470292
0.66221111	0.8555192	0.61692139
0.63983984	0.08620944	0.13098033
0.63462503	0.5978128	0.11634272
0.12864663	0.32270846	0.11743044
0.13600882	0.835376	0.10733565
0.14569362	0.08094024	0.62424686
0.16961014	0.5814014	0.61216438
0.67645474	0.34759525	0.61749333
0.67046649	0.85996962	0.62506353
0.63593445	0.0863619	0.12920209
0.63436453	0.59670815	0.1176436
0.11785338	0.32656295	0.11720718
0.13272537	0.8346339	0.10878859
0.15066136	0.07945734	0.63494881
0.15908054	0.5841538	0.61416233
0.68399507	0.34651017	0.62078042
0.676684	0.86321381	0.62771074
0.63331028	0.08537358	0.12470948
0.63821607	0.59523395	0.12010669
0.10709459	0.33050405	0.12077071
0.12712325	0.83468551	0.11062778
0.15395916	0.07717199	0.64577995
0.14761477	0.58930065	0.62019073
0.68392135	0.34474985	0.62425936
0.68041833	0.86487283	0.62130492
0.63224368	0.08424519	0.11914983
0.64055024	0.59444836	0.12014962
0.09984904	0.33428895	0.12434539
0.12504829	0.83486048	0.11306714
0.15229599	0.07694077	0.65318127
0.14009046	0.59370513	0.62616355
0.67800709	0.34218597	0.62604026
0.679165	0.86263733	0.61320816
0.63151005	0.0853405	0.11749294
0.64216928	0.59400417	0.11741028
0.1003982	0.33599828	0.12510077
0.12606533	0.83587686	0.11516606
0.14987162	0.07873942	0.65158958
0.14030348	0.59667457	0.63311769
0.67048549	0.34068641	0.62683067
0.67090941	0.85735595	0.60715393
0.63211798	0.08790998	0.11945322
0.64508322	0.59358326	0.11348139
0.11032525	0.33597819	0.12163966
0.13069978	0.8385019	0.11534825
0.14697841	0.07942397	0.64247303
0.14599324	0.59809899	0.63989141
0.66375534	0.34081125	0.62944456
0.66011554	0.85206094	0.60405822
0.63487137	0.08933555	0.12067778
0.64622755	0.59271468	0.11046506
0.1218958	0.33504885	0.11759657
0.13812811	0.84236599	0.11266212
0.14381664	0.07971108	0.6357137
0.14919483	0.59715845	0.64293907
0.65920366	0.34160627	0.63292291
0.65021449	0.84744809	0.60613092
0.635725	0.08889467	0.11917827
0.65158941	0.59054491	0.11074966
0.12979855	0.33156328	0.11576948
0.1427225	0.84767914	0.10873487
0.14251702	0.08006082	0.6337374
0.14841853	0.5951666	0.64184693
0.65584811	0.3423227	0.63741663
0.64368842	0.84492268	0.61446103
0.63518432	0.08566207	0.11371829
0.65692292	0.58806078	0.11433578
0.13373909	0.32850764	0.1162791
0.14073815	0.8514062	0.10755722
0.14295972	0.08001589	0.63662092
0.14517802	0.59271196	0.63580504
0.6525842	0.33952349	0.64389725
0.63869111	0.84452535	0.62399037
0.63083904	0.08096752	0.10693733
0.65807763	0.58702095	0.11736893
0.13298708	0.32721756	0.11934277
0.13310889	0.8516368	0.11085048
0.14338525	0.08060789	0.64197377
0.13725403	0.59033028	0.62846971
0.65262142	0.33492145	0.64878527
0.63414922	0.84419384	0.6325544
0.62233868	0.07871398	0.10212635
0.65508263	0.58707362	0.11869987
0.13129733	0.32707571	0.12217255
0.12491433	0.84978425	0.1168414
0.14478312	0.08127955	0.64484158
0.13078401	0.58862762	0.62549259
0.65478813	0.3310799	0.64981872
0.63183861	0.84403493	0.63990819
0.61555065	0.07758576	0.10064569
0.64800719	0.58906221	0.11662032
0.12985833	0.32892978	0.12265418
0.1201905	0.84623722	0.12120558
0.14601151	0.07983203	0.64329768
0.12804054	0.58751771	0.62563231
0.65775017	0.32750211	0.64782206
0.63297123	0.84408452	0.64522864
0.61221593	0.07710656	0.10386088
0.63999929	0.5916544	0.11327808
0.12712958	0.33147759	0.1219185
0.11913407	0.8427676	0.1227574
0.14692263	0.07619709	0.63980143
0.12636611	0.58641103	0.6296923
0.65712331	0.32589457	0.64227027
0.63658259	0.84277487	0.64822968
0.61488936	0.07685055	0.10944287
0.63540664	0.59119903	0.11454096
0.12309552	0.33262405	0.12220649
0.12126878	0.8405978	0.12215053
0.14792598	0.07104375	0.6363099
0.12721714	0.58445253	0.6364372
0.64920799	0.3262046	0.63607855
0.64034975	0.84106207	0.64764912
0.62174521	0.07333256	0.11538314
0.63285124	0.58824186	0.11900345
0.11860061	0.33246503	0.12356342
0.12450098	0.83940049	0.1219045
0.14534905	0.06712196	0.63359025
0.12706975	0.58113149	0.63966958
0.63533268	0.3255447	0.63172123
0.63977138	0.83845152	0.6442994
0.62882486	0.06823738	0.12361823
0.63064502	0.58367955	0.12407908
0.11532174	0.32967075	0.12451535
0.1263504	0.84006796	0.12465212
0.13947617	0.06571235	0.62945329
0.12572409	0.57735726	0.64117277
0.61845277	0.32394188	0.63057719
0.631655	0.83386869	0.64151864
0.63459784	0.06425129	0.13181557
0.62810089	0.57820395	0.12772278
0.11512928	0.3262758	0.12352653
0.12642969	0.84109571	0.12784758
0.13114735	0.06543424	0.62272012
0.12497971	0.57511062	0.64096338
0.60729848	0.32170605	0.63144411
0.62288574	0.82950784	0.6419399
0.63772211	0.06236952	0.13730922
0.6226035	0.57422535	0.12641011
0.11755818	0.32389397	0.12162375
0.12623238	0.84069691	0.12948791
0.12223136	0.06572248	0.61712407
0.12254603	0.57436868	0.63840524
0.60651882	0.31889436	0.63232729
0.61974661	0.82670876	0.64662732
0.63930139	0.06329813	0.1387007
0.6183696	0.57229962	0.12645004
0.12091099	0.32125806	0.12031447
0.12518803	0.83931638	0.1299679
0.11859603	0.06495114	0.61384745
0.12332213	0.57453787	0.63711941
0.61303394	0.3162597	0.63327092
0.62458058	0.82728124	0.65343254
0.64099114	0.0648188	0.13188405
0.61760341	0.57230014	0.13190503
0.12312164	0.31918316	0.1204977
0.12404978	0.83616349	0.12946748
0.11811971	0.06219323	0.61419544
0.12565579	0.57456694	0.63593953
0.62199875	0.31341211	0.63361284
0.63351619	0.83052002	0.65698726
0.64256566	0.06457668	0.12261631
0.6214841	0.5730011	0.13942343
0.1207041	0.31738309	0.12413299
0.12462366	0.83202041	0.1293611
0.11773824	0.05925703	0.61818148
0.12413462	0.57312397	0.6348949
0.626826	0.31064735	0.63367346
0.64215837	0.83147375	0.65454125
0.64562846	0.06142974	0.11790029
0.62960539	0.57283308	0.14665247
0.11822104	0.31551769	0.12864222
0.12319547	0.82739562	0.13087655
0.11667528	0.05654368	0.62433524
0.11946032	0.56972835	0.6357155
0.62385692	0.30894397	0.63477528
0.64785359	0.82936021	0.64977879
0.64907483	0.05595537	0.11942554
0.63558535	0.57126532	0.14965692
0.1189688	0.31461808	0.13242982
0.12033285	0.82187752	0.13374381
0.11235526	0.05462945	0.63113585
0.11019066	0.5653271	0.63748659
0.61823699	0.30823994	0.63588727
0.64744439	0.82403397	0.64508585
0.65036497	0.05100777	0.12765886
0.63806648	0.56822314	0.14491115
0.12147265	0.31351756	0.13444907
0.12032941	0.81680074	0.13778229
0.10652615	0.05438879	0.63532339
0.09822414	0.56232732	0.64109099
0.61390198	0.30835971	0.63728459
0.64378126	0.81564491	0.64694163
0.65038221	0.0483655	0.13934719
0.63680007	0.56370096	0.13644917
0.12520254	0.31176827	0.13366569
0.12356274	0.81233822	0.14220629
0.10071967	0.05420397	0.63590552
0.09217572	0.56147859	0.64523285
0.61359771	0.30906237	0.6394918
0.63918677	0.81080207	0.65476628
0.65113028	0.0475713	0.14965709
0.63153902	0.55911807	0.1283184
0.12986876	0.30947136	0.13172871
0.12907758	0.80933817	0.1453589
0.09508163	0.05297577	0.63498733
0.09151619	0.56167263	0.64825406
0.61815214	0.30873211	0.64333934
0.63323158	0.81001472	0.66074189
0.65403017	0.04758497	0.15593387
0.62627786	0.55517673	0.12313889
0.13273214	0.30507966	0.12949377
0.13385149	0.81014013	0.14615646
0.09338915	0.05053931	0.63608348
0.09290503	0.56244786	0.65045202
0.62380246	0.30596473	0.64954868
0.62760947	0.80980531	0.66041817
0.65862811	0.04630584	0.15742128
0.62430172	0.55262783	0.12244166
0.13321973	0.3008034	0.12749497
0.13423792	0.81170856	0.1445618
0.09463106	0.04765775	0.64139094
0.09546704	0.56320866	0.6476548
0.62882315	0.29998921	0.6563968
0.62410338	0.80996256	0.65341045
0.66136023	0.04375723	0.15530338
0.62437701	0.55237259	0.12463816
0.13295	0.29730646	0.12646894
0.13092265	0.81273764	0.14231917
0.0965605	0.04688841	0.65166627
0.09564229	0.56311944	0.64081535
0.63344137	0.29288398	0.66070624
0.62300496	0.80984007	0.64525807
0.65922161	0.04322272	0.15124866
0.62561332	0.55319232	0.12889634
0.13222503	0.29516735	0.12536305
0.12628753	0.81272469	0.14182831
0.10093284	0.04781347	0.66321513
0.09542479	0.56149377	0.63756698
0.63631958	0.29052213	0.65946715
0.62361067	0.81003	0.64362097
0.65220997	0.04497181	0.14556508
0.62721549	0.55391159	0.13405173
0.13039215	0.29569919	0.12579826
0.12221187	0.8092914	0.14370891
0.10589927	0.04865276	0.6713505
0.09822004	0.55869989	0.63920415
0.63707213	0.29189486	0.65584495
0.62785806	0.8110224	0.64746959
0.64212984	0.04712886	0.13961293
0.63136195	0.55464562	0.13792633
0.12636829	0.29663927	0.13089221
0.12008504	0.80527686	0.1472514
0.11071893	0.04889147	0.67351195
0.10412866	0.55512341	0.64684035
0.63283857	0.29358529	0.65126081
0.63311324	0.81136129	0.65249999
0.63177842	0.04795384	0.13642634
0.63899735	0.55439334	0.14082774
0.12174494	0.29697492	0.13918186
0.11981979	0.80407699	0.1485553
0.11636909	0.04844959	0.66775521
0.1124041	0.55144055	0.65624035
0.62750434	0.2945622	0.64904633
0.63695965	0.8104717	0.65578576
0.62342037	0.04580626	0.13795258
0.64657019	0.55306731	0.14226818
0.11821282	0.29746596	0.14912127
0.12052878	0.80411598	0.14494314
0.11775291	0.04684912	0.6620298
0.11978153	0.54953156	0.66223899
0.62487389	0.29361131	0.65040437
0.63833871	0.80836004	0.65600658
0.62082143	0.04080734	0.14386167
0.65215013	0.55160937	0.13914882
0.1157395	0.29765438	0.15501757
0.12075394	0.80528264	0.13796652
0.11458087	0.04522648	0.66018974
0.12449364	0.54999933	0.66338012
0.62342342	0.29301891	0.65484868
0.63796612	0.80472653	0.65218835
0.62415024	0.0352767	0.15094346
0.6536854	0.54975545	0.13340152
0.11498354	0.29814852	0.15220377
0.11830043	0.80696434	0.13142061
0.10978479	0.04423428	0.66207045
0.12730502	0.55235596	0.6568864
0.62258773	0.29420683	0.66176878
0.6367501	0.80296635	0.64535196
0.62974792	0.03203937	0.15584679
0.64871041	0.54863835	0.12913796
0.1139895	0.300108	0.14657483
0.11567041	0.8088759	0.12784666
0.1052827	0.0436573	0.66504151
0.12558733	0.55539852	0.64763996
0.62399459	0.29655529	0.66708409
0.63470407	0.80406218	0.63861206
0.63460739	0.03369918	0.15635197
0.63882473	0.54941212	0.12689539
0.11206211	0.30314786	0.14228534
0.11493293	0.8127454	0.12875287
0.10618042	0.04319404	0.66611716
0.1236466	0.55749615	0.64049796
0.62690871	0.29913994	0.6682841
0.63312972	0.80761103	0.63595411
0.63423327	0.037921	0.15193689
0.62853079	0.55228159	0.12729088
0.11172434	0.30640577	0.14117934
0.11601922	0.81644702	0.13038602
0.11196764	0.04254744	0.66414473
0.12804225	0.55861932	0.63759428
0.63170743	0.30008364	0.6650736
0.6310429	0.81254303	0.63745959
0.62815534	0.0425736	0.14668926
0.6222875	0.55711197	0.12739911
0.11193946	0.31020937	0.14203324
0.1202311	0.81851707	0.13368683
0.11899083	0.04160273	0.66129571
0.13395959	0.5597789	0.63862601
0.63855269	0.29939405	0.65754607
0.63204148	0.81354025	0.64138861
0.62018581	0.0470338	0.14366934
0.62547339	0.56174982	0.12708687
0.11229449	0.3120855	0.1413786
0.12567532	0.82102314	0.13866419
0.12479092	0.04143702	0.65948866
0.13956137	0.56132356	0.64168092
0.64153618	0.29876245	0.64692849
0.63699753	0.81196228	0.64450789
0.61301019	0.05015705	0.14132628
0.63507931	0.56411668	0.12706748
0.11242092	0.31329165	0.13697594
0.1277724	0.82378527	0.14270692
0.12678163	0.04285969	0.65684749
0.14098963	0.56379894	0.64348814
0.63952918	0.29928999	0.63698523
0.64118057	0.81077993	0.6452925
0.60845088	0.05196495	0.13863499
0.648007	0.56383616	0.12596739
0.11340508	0.31474083	0.13152801
0.12354284	0.82710723	0.14668245
0.12786241	0.04617741	0.65422286
0.13709513	0.56685982	0.64296734
0.63545095	0.30207122	0.62918591
0.64357323	0.81142589	0.64656364
0.6056488	0.05338192	0.13565172
0.65916938	0.56105238	0.12533175
0.11588117	0.31545228	0.12921064
0.11747572	0.83051975	0.14766194
0.12957063	0.05151761	0.65012053
0.13433952	0.56861901	0.63919177
0.63163501	0.30631237	0.62633024
0.64242926	0.81365314	0.6476871
0.60550115	0.05446469	0.13323737
0.66657752	0.56022835	0.1244331
0.11746456	0.3163497	0.13165154
0.11652551	0.83176314	0.14332357
0.13023681	0.05705315	0.64654247
0.13474245	0.56948611	0.63317078
0.63330665	0.30899232	0.63055128
0.63901856	0.81563933	0.64906102
0.60704714	0.05575165	0.13228174
0.67089263	0.56401259	0.12208465
0.1189453	0.31636103	0.13591698
0.11945823	0.83019666	0.1343175
0.12980007	0.06139354	0.64569051
0.13874068	0.56999303	0.63057693
0.63852706	0.30884665	0.63637961
0.63729544	0.81727746	0.65018817
0.61096265	0.05802639	0.13312776
0.66983083	0.5693752	0.12061101
0.11954564	0.31557984	0.13972421
0.12285871	0.82638271	0.12223497
0.12712981	0.06445144	0.64532831
0.14387868	0.57003287	0.6336756
0.64345595	0.30717478	0.64201275
0.63726879	0.81881505	0.64836218
0.61840617	0.06085782	0.13581808
0.66469874	0.57416021	0.1196319
0.11872424	0.31663337	0.14247868
0.12338606	0.8226011	0.11225104
0.12350444	0.06649592	0.64644984
0.14508576	0.57102392	0.640074
0.64699017	0.30691511	0.64557583
0.64006492	0.82029559	0.64265949
0.62393025	0.0635729	0.13797829
0.65788908	0.57666767	0.12095522
0.11972131	0.3183997	0.14242283
0.12052994	0.82293932	0.10949832
0.12218105	0.06887973	0.64825416
0.14379071	0.57264409	0.6494059
0.646093	0.3105125	0.64693416
0.64459658	0.82265064	0.63366151
0.62632433	0.06588576	0.13814389
0.64986522	0.57702613	0.12668206
0.1233468	0.32047638	0.13932069
0.11776305	0.82603993	0.11475977
0.12282523	0.07162361	0.64911952
0.14072397	0.57470798	0.65760158
0.64224238	0.3168358	0.64615779
0.64730042	0.82609169	0.62365449
0.62933583	0.06821417	0.13666883
0.64240009	0.57618984	0.13178778
0.12828561	0.32271444	0.13531468
0.11803946	0.83008725	0.12518121
0.12414958	0.07346353	0.64820818
0.1369161	0.57800813	0.66157793
0.63809964	0.3227127	0.64375292
0.64815419	0.82964403	0.61587192
0.63185519	0.06987355	0.13216279
0.63844115	0.57561641	0.13397758
0.13304127	0.32324143	0.13193459
0.12238753	0.83364948	0.13098846
0.12364212	0.07517994	0.64461231
0.13542004	0.58068311	0.6607621
0.6329663	0.32586687	0.64219934
0.64769541	0.83380535	0.6124426
0.63566487	0.06929734	0.12459677
0.63733257	0.57604515	0.1327087
0.13646642	0.32381601	0.12782623
0.13103584	0.83458403	0.12909
0.11965273	0.07628435	0.6394358
0.13522998	0.58263416	0.65445023
0.62889994	0.32603486	0.64380273
0.64901112	0.83817993	0.61329834
0.64027022	0.06776251	0.11736447
0.64123605	0.57716825	0.12844015
0.13525936	0.32550017	0.12172716
0.14124954	0.8344174	0.12324981
0.11490332	0.07648256	0.63504263
0.13547935	0.58434691	0.64737739
0.62684066	0.32564519	0.64810891
0.65280627	0.84104804	0.6181581
0.6433328	0.06732878	0.11293696
0.64749491	0.57768513	0.12607767
0.13192495	0.32686136	0.11614022
0.1505933	0.8348653	0.11740509
0.11233191	0.0766928	0.6310027
0.13716136	0.58492876	0.6425648
0.62740673	0.32695206	0.65245282
0.65500482	0.84333866	0.62467578
0.6462136	0.0682915	0.11167682
0.65060441	0.57809413	0.12635702
0.12985698	0.32901443	0.11314357
0.15561944	0.83625696	0.11519929
0.11403469	0.07658754	0.6291736
0.13757512	0.58501392	0.63977474
0.63177131	0.33028754	0.65421034
0.65352946	0.84500157	0.62910157
0.6476604	0.07030675	0.11154427
0.64730057	0.57896881	0.12778292
0.12927297	0.33038763	0.11358041
0.15418346	0.83997349	0.11847589
0.11915711	0.07599641	0.62871932
0.13582037	0.58522589	0.63965028
0.63716769	0.33505733	0.65075604
0.64837783	0.84552808	0.63052615
0.64806145	0.0726473	0.11325637
0.63739616	0.58061929	0.13029461
0.12985619	0.33062093	0.11897265
0.15002983	0.84381719	0.1231473
0.12433129	0.07492873	0.62752268
0.13246961	0.58514785	0.64044188
0.64304788	0.33988272	0.64278156
0.64143904	0.84582847	0.62947705
0.65155634	0.0752817	0.11680375
0.62749051	0.58451935	0.13016145
0.13064759	0.33161601	0.12639476
0.14672683	0.84602973	0.12503005
0.12913487	0.07296175	0.62600671
0.12763034	0.585278	0.6387566
0.65034008	0.34363889	0.63410605
0.63682219	0.84623544	0.62839101
0.65655266	0.07745151	0.11848513
0.62438861	0.58937409	0.12658543
0.13168759	0.33263665	0.13143639
0.14457739	0.84691516	0.12131577
0.13487169	0.07011292	0.6218871
0.12216758	0.58537815	0.63597081
0.65645382	0.34590292	0.62635836
0.63723974	0.84672716	0.62868059
0.66309134	0.07803522	0.11654276
0.62565263	0.59173933	0.12249712
0.13509387	0.33435512	0.13341289
0.14332796	0.84618223	0.11488808
0.14049023	0.06716296	0.61912879
0.11683719	0.58509447	0.63187573
0.66136227	0.3458553	0.61941159
0.64070746	0.84772516	0.63111826
0.67090875	0.07675623	0.1134649
0.62998357	0.59026543	0.11822955
0.13975963	0.33700709	0.13160422
0.14178105	0.84542231	0.11275579
0.14640653	0.06520965	0.62015694
0.11212202	0.58490405	0.62654158
0.66556123	0.34335506	0.61349344
0.64672213	0.84839281	0.63693695
0.67557631	0.07419143	0.11169235
0.63426065	0.58727396	0.11651481
0.14318707	0.33854386	0.127956
0.13936556	0.84568552	0.11683404
0.15176059	0.0655165	0.62054084
0.11007871	0.58455292	0.62366774
0.6666087	0.3380248	0.61058157
0.65059599	0.84897805	0.64530406
0.67534588	0.07370471	0.11215656
0.63302506	0.58580344	0.11784504
0.14098286	0.33842901	0.12466891
0.13610107	0.84564247	0.12452201
0.15587274	0.06739439	0.61967748
0.11114253	0.58371857	0.62077664
0.66776745	0.33145144	0.61219165
0.65118107	0.84911676	0.65281297
0.67150229	0.07507698	0.11337518
0.63085336	0.58773851	0.12086025
0.12962488	0.33619433	0.12047276
0.13265766	0.84535506	0.13254425
0.15915689	0.06908797	0.61756602
0.11507361	0.58312607	0.61826424
0.66949131	0.32615167	0.61838548
0.64960699	0.84745928	0.65754896
0.66582595	0.07661922	0.11338487
0.63162046	0.59213494	0.12402798
0.12031139	0.33253462	0.11623599
0.12929928	0.84355573	0.13389436
0.15899589	0.06997253	0.61171201
0.12089934	0.58200854	0.61802697
0.66822583	0.32387997	0.62692214
0.64500743	0.84530161	0.65759503
0.66197391	0.07881197	0.11188825
0.63476813	0.59671573	0.12414253
0.11761842	0.33095666	0.11238972
0.1247348	0.84018032	0.12898167
0.15778587	0.06973171	0.60673957
0.12401994	0.58021458	0.61798273
0.66522547	0.32502348	0.63333644
0.63894163	0.8431119	0.65060371
0.65948813	0.08117391	0.11009287
0.63993187	0.59945908	0.11985642
0.11807568	0.33029572	0.10778791
0.11808621	0.83819235	0.12194099
0.15950098	0.06744605	0.60552737
0.1222189	0.57794895	0.62097759
0.65745283	0.33071697	0.63554195
0.63165115	0.8409133	0.63924225
0.65945807	0.08356183	0.1094808
0.64254059	0.6001474	0.11513369
0.12025317	0.32873038	0.10531301
0.10934324	0.83687953	0.11526414
0.16350255	0.06576436	0.60817942
0.11827357	0.57502206	0.62537365
0.64795289	0.33702445	0.63433095
0.62537514	0.84009113	0.62882045
0.66242304	0.08685761	0.11078331
0.64193972	0.59910336	0.11075545
0.12357914	0.32613148	0.10502102
0.10049562	0.83642615	0.1149121
0.16846324	0.06656483	0.61517694
0.11530419	0.57357592	0.63012771
0.64148197	0.33901332	0.63198719
0.62287889	0.83980426	0.62219372
0.6624186	0.08935197	0.11337148
0.63803902	0.59750561	0.10792633
0.12890332	0.32128265	0.10421425
0.09355508	0.83738613	0.11760483
0.17034427	0.06819587	0.62320599
0.11618554	0.57498234	0.63461021
0.63608036	0.33634724	0.63141421
0.62195729	0.83948199	0.62264305
0.65718022	0.08851571	0.11728892
0.63098056	0.59629461	0.10787296
0.13451872	0.31597218	0.10380465
0.09103675	0.83714645	0.11966039
0.16661397	0.06944499	0.63184197
0.12256651	0.57680935	0.63475184
0.63259004	0.3322859	0.63293708
0.62349145	0.84109558	0.62679909
0.64931303	0.08489353	0.12149303
0.62582059	0.59532684	0.10827596
0.13978879	0.31234674	0.10405585
0.09510743	0.83522994	0.12109477
0.16266044	0.06921257	0.64095977
0.13111387	0.57807161	0.63193553
0.63168773	0.32934106	0.6360742
0.62940858	0.84512345	0.62926773
0.6402972	0.08011289	0.12401135
0.62320196	0.59351586	0.10973129
0.14273345	0.31083027	0.1037102
0.1008711	0.83244153	0.12014432
0.15928303	0.0677618	0.64648283
0.13809267	0.57733065	0.63002203
0.63216354	0.32829149	0.64110876
0.63377518	0.84896191	0.62631031
0.63422295	0.07774462	0.12401514
0.62069087	0.59102311	0.11377667
0.14183112	0.31170468	0.10381736
0.10444332	0.82886898	0.11825136
0.15368559	0.06683372	0.64859183
0.14187615	0.57592854	0.63054656
0.63458574	0.32789573	0.64559972
0.63431315	0.85038723	0.61914121
0.63225633	0.07780541	0.12116811
0.61818549	0.58839299	0.11683376
0.13790718	0.31341778	0.10405293
0.10343345	0.82600182	0.11737566
0.14647884	0.06762317	0.64741756
0.14314903	0.57682867	0.63385696
0.6378893	0.32763572	0.64696409
0.63319247	0.84668076	0.61118687
0.63167935	0.07881989	0.11640577
0.61696298	0.58612918	0.12017423
0.1318767	0.31431909	0.10783233
0.09834659	0.82487144	0.11630631
0.13799089	0.06911029	0.64149693
0.14460444	0.57887037	0.63774253
0.64155451	0.32808622	0.64481494
0.63113821	0.84088078	0.60388685
0.63117347	0.07948839	0.11454134
0.61746706	0.58540125	0.12245346
0.12573565	0.3152229	0.1163825
0.09458183	0.82669172	0.11563115
0.13091231	0.06905754	0.63519917
0.14681757	0.58099452	0.63939401
0.64443791	0.32948761	0.63939737
0.63426048	0.83667479	0.6004188
0.63006426	0.07803241	0.11928853
0.62089442	0.58551285	0.12125309
0.12449183	0.31635994	0.12478181
0.09639366	0.83058429	0.11595983
0.12612774	0.06625464	0.63128325
0.14848752	0.58278486	0.63770856
0.64279627	0.3313977	0.63834741
0.64331424	0.83559656	0.60093695
0.62778236	0.07353419	0.12822774
0.62791224	0.58610982	0.11847056
0.13095648	0.3175943	0.13103475
0.10184047	0.83246383	0.11722365
0.12398573	0.06279722	0.63233966
0.14808525	0.5838596	0.63329958
0.63763928	0.33308878	0.64186423
0.65319175	0.83747306	0.60341431
0.62773099	0.06879331	0.13517102
0.63595112	0.58544404	0.11574429
0.13685851	0.31864816	0.13458783
0.109462	0.83078295	0.11911583
0.1240262	0.06154948	0.63959483
0.14280417	0.58472807	0.62954572
0.63192738	0.33434643	0.6459563
0.66058971	0.83921676	0.60809496
0.63044563	0.06462023	0.13753298
0.64097821	0.58263759	0.11390588
0.13756006	0.31780996	0.13632196
0.11791618	0.8283769	0.1197728
0.12358836	0.06327912	0.64570616
0.13593088	0.58550212	0.63026076
0.62730841	0.33445697	0.64816417
0.66123462	0.83870554	0.61431039
0.63417459	0.06123104	0.13667634
0.63929134	0.57914922	0.11474883
0.13083583	0.31623093	0.13873228
0.12597301	0.8265302	0.11900224
0.12221141	0.06748146	0.64820288
0.13179097	0.58507775	0.63095761
0.62736771	0.33333182	0.64490245
0.65781033	0.83714554	0.62256498
0.63446333	0.05860357	0.1366278
0.63357481	0.57548071	0.11625564
0.11987107	0.31546754	0.14139872
0.13408267	0.8262288	0.11786625
0.11940708	0.0727057	0.64788412
0.13034855	0.58262226	0.62888796
0.63258803	0.33113986	0.63738197
0.65341167	0.83546412	0.63290135
0.62999647	0.05641016	0.141356
0.63002735	0.57237205	0.11706494
0.10912385	0.31522709	0.14318156
0.14093393	0.82801798	0.11573696
0.11481165	0.07669998	0.6455004
0.13197236	0.5792361	0.6244825
0.63717015	0.32765884	0.63005317
0.64856691	0.83445077	0.64262074
0.6255133	0.05614927	0.14846318
0.63254785	0.57126311	0.11799047
0.10350517	0.31656429	0.14376475
0.14454432	0.8310879	0.11401649
0.11087872	0.07867843	0.64553389
0.13395777	0.57668485	0.61892713
0.63894831	0.32318524	0.62645383
0.64627599	0.8344868	0.64775651
0.6229912	0.05717951	0.15210215
0.63970651	0.5707692	0.11878964
0.10610174	0.31932549	0.14175683
0.14531575	0.83423893	0.11741181
0.11027589	0.07778196	0.64698216
0.13216957	0.57609357	0.61787157
0.6375526	0.31825738	0.62707156
0.64457793	0.83433238	0.64345198
0.62401884	0.05847077	0.15076419
0.64537867	0.56924707	0.12125383
0.1115055	0.32150352	0.13690286
0.14453643	0.83645487	0.12357185
0.10867714	0.07403169	0.64600887
0.12705898	0.5769851	0.62287992
0.63404289	0.31320961	0.63038502
0.64177621	0.83366134	0.6336527
0.62798262	0.0592857	0.14516446
0.64678933	0.56722787	0.12467436
0.11562441	0.32315764	0.13096653
0.14293887	0.836449	0.12685629
0.10640292	0.06901544	0.64250189
0.11909389	0.57851339	0.63159955
0.6323198	0.3098082	0.63371362
0.64104915	0.83191073	0.62831596
0.63140013	0.05795499	0.13897237
0.64471761	0.56536875	0.12766309
0.11684628	0.3239786	0.12378149
0.14107775	0.83478481	0.12732661
0.10534058	0.06444752	0.63774969
0.11128017	0.57880437	0.64210082
0.63376038	0.30924528	0.63514115
0.64110008	0.82866078	0.63137911
0.63275515	0.05520954	0.1366037
0.64152647	0.56443711	0.13136843
0.11550039	0.32388089	0.1187482
0.13961192	0.83226027	0.12592854
0.10431381	0.0617334	0.63711189
0.10785195	0.57680713	0.65005081
0.63765278	0.31029307	0.63537163
0.64047316	0.8264704	0.64155056
0.63016564	0.05264963	0.13782547
0.64101638	0.56415069	0.13338041
0.11404884	0.32321884	0.1160287
0.13894439	0.830541	0.12477419
0.10374461	0.06064651	0.64338757
0.10908229	0.57461208	0.65435972
0.64182291	0.31190803	0.63562301
0.63828158	0.82552632	0.65540462
0.62488552	0.05046209	0.14080007
0.6447799	0.56394534	0.13380617
0.11586979	0.32118208	0.11211871
0.14032906	0.82995489	0.12598341
0.10659159	0.06022243	0.6519007
0.11425077	0.57282724	0.65568439
0.64262832	0.31264042	0.63810144
0.63205431	0.82480706	0.6668468
0.62111697	0.05014332	0.14230527
0.6495709	0.56378629	0.13400778
0.11980714	0.31869964	0.10892953
0.14255905	0.8285716	0.1301178
0.11334636	0.05935692	0.66020278
0.11963721	0.57113	0.65294116
0.63730074	0.31076008	0.64282412
0.62338617	0.82351577	0.67208839
0.62190342	0.0519914	0.13861106
0.65208804	0.56297768	0.13337738
0.1237299	0.31679464	0.10844003
0.14390364	0.82688972	0.1364108
0.11894413	0.05713151	0.66593643
0.11809628	0.56930428	0.64810763
0.62641481	0.30667862	0.6482487
0.61514228	0.81931966	0.67131762
0.62726547	0.05469069	0.13081096
0.65090861	0.56129846	0.1362925
0.12733687	0.31566344	0.11281923
0.14224377	0.82563191	0.14422152
0.12059467	0.05574572	0.66733486
0.11385566	0.56739799	0.64267825
0.61603884	0.30259234	0.65352124
0.61063673	0.8139396	0.66538439
0.63255268	0.05610079	0.1219538
0.64639418	0.56000731	0.14019369
0.13138947	0.31526669	0.12303834
0.13844049	0.82503498	0.15203417
0.11873335	0.0573412	0.66448487
0.11039382	0.56544393	0.63792354
0.61178361	0.30027372	0.65773202
0.61209139	0.8098963	0.65736083
0.63379806	0.05519236	0.11553246
0.64104349	0.56043507	0.13995348
0.13560506	0.31530934	0.13600158
0.13619828	0.82643197	0.1585899
0.11463903	0.06058316	0.65664106
0.10802989	0.56382596	0.63641328
0.61475118	0.30018698	0.66000738
0.61738401	0.80781491	0.65085796
0.63183897	0.0533639	0.11502897
0.63650688	0.56389659	0.13841747
0.13977647	0.31507044	0.14731145
0.13686107	0.82898099	0.16064603
0.10970467	0.06229973	0.64615663
0.11149484	0.56237172	0.63718304
0.62131703	0.30218165	0.66184177
0.62349292	0.80778144	0.64659754
0.63002062	0.05175743	0.11579543
0.63363279	0.56906005	0.13693835
0.14528333	0.31392362	0.1541079
0.13892297	0.82902258	0.16018766
0.10853018	0.06110875	0.63989027
0.11587873	0.561378	0.63964605
0.62884979	0.30422721	0.66355549
0.62613067	0.80754109	0.64536618
0.6309233	0.050819	0.1154818
0.63124085	0.5710038	0.13870178
0.14765892	0.31173838	0.15537727
0.13871927	0.82617388	0.15889421
0.1146893	0.05699752	0.63759119
0.11769822	0.56127095	0.64339137
0.633897	0.30426016	0.6623557
0.62183498	0.80517716	0.6495576
0.63505262	0.05109343	0.11455595
0.63010251	0.56812307	0.14602038
0.1451261	0.3089314	0.15350017
0.13355865	0.82118263	0.15559898
0.12521888	0.05177762	0.6372381
0.12043374	0.56104902	0.64467563
0.63474203	0.30248707	0.65819557
0.62015601	0.8028012	0.65825095
0.64006247	0.05194765	0.11218752
0.63201923	0.56450508	0.15175795
0.1403578	0.30842711	0.14929588
0.12491422	0.8155002	0.15082572
0.13398275	0.04720252	0.63699623
0.12300362	0.56037232	0.64341159
0.63427725	0.30067446	0.65122983
0.62750628	0.80239839	0.66847922
0.64504584	0.0524568	0.11487753
0.63864005	0.56204254	0.15330655
0.13484496	0.30935044	0.14313762
0.11565827	0.8121263	0.1476227
0.13363039	0.04427111	0.63426162
0.12635263	0.55909087	0.64311416
0.63259983	0.29994474	0.64251857
0.63710622	0.80426954	0.67599224
0.64966314	0.05298857	0.12136381
0.64935032	0.56144732	0.15191443
0.12886382	0.31042257	0.13859386
0.11004534	0.81239249	0.14673317
0.12457053	0.04432318	0.63110902
0.13078795	0.55784476	0.64579307
0.62864038	0.29923266	0.63648551
0.64450773	0.8077545	0.6788379
0.65004953	0.05241023	0.12759291
0.66054649	0.56325449	0.14831383
0.12330197	0.31148719	0.13658767
0.11303456	0.81397695	0.14623657
0.11572326	0.04634668	0.62837029
0.13577975	0.55898263	0.65137289
0.62361902	0.2968524	0.63675879
0.64665844	0.81095256	0.6755549
0.64845684	0.05097921	0.13288425
0.66415016	0.56492317	0.14789926
0.12054183	0.31119835	0.13886418
0.12340764	0.81650529	0.14682833
0.11478039	0.04795393	0.62670813
0.14007994	0.56246626	0.65831706
0.61837814	0.29380006	0.64167367
0.64521926	0.81360229	0.66644424
0.64803128	0.0497157	0.13583184
0.65390573	0.56421513	0.15105369
0.1222941	0.31002362	0.14353027
0.13384863	0.8205202	0.14770632
0.12536208	0.04894142	0.6279498
0.14120636	0.56595522	0.66408896
0.61649927	0.29193846	0.64630203
0.64441855	0.81507843	0.65518176
0.64966361	0.04852603	0.13646503
0.63926783	0.56136303	0.15584327
0.12677829	0.31016019	0.14483558
0.13649694	0.82491268	0.14408377
0.13770188	0.04838006	0.62745728
0.13804064	0.56777057	0.66647662
0.62059583	0.29208134	0.64660609
0.64478012	0.8145875	0.6493
0.65295543	0.04896174	0.1373999
0.63231607	0.55817198	0.15887682
0.13184408	0.31057906	0.14321853
0.13132619	0.82838836	0.13728917
0.14214698	0.04721081	0.62417662
0.13040944	0.56720672	0.66596941
0.62859215	0.29439213	0.64496512
0.64673965	0.81424134	0.65020234
0.6539558	0.05198383	0.13871173
0.63444789	0.55633107	0.15700785
0.13727334	0.31029494	0.14068426
0.12406065	0.82995669	0.13112441
0.1390262	0.04802707	0.62074119
0.1221781	0.56316637	0.66372238
0.63898329	0.29837399	0.64278425
0.64907197	0.81456041	0.65258233
0.65297454	0.05401219	0.14052852
0.64240074	0.557223	0.1491419
0.14122237	0.31015412	0.13843466
0.11695145	0.83082072	0.12778426
0.13163623	0.05024041	0.6215276
0.1162393	0.56042074	0.66102021
0.64841786	0.30290339	0.64166955
0.64783931	0.81600148	0.65272023
0.65145135	0.05391708	0.1435102
0.64934497	0.56014547	0.1370956
0.14337066	0.30992456	0.14139619
0.11071265	0.83098158	0.12514113
0.1253276	0.05343442	0.62993295
0.11605862	0.56182957	0.65983497
0.65232825	0.30704309	0.64404469
0.64527238	0.81885815	0.64873219
0.64732232	0.05251669	0.14447884
0.6508803	0.56381389	0.12495066
0.1425949	0.31045964	0.14357686
0.10581012	0.82965612	0.12198216
0.12343319	0.05609713	0.64318916
0.12301694	0.56607312	0.66126842
0.65217479	0.31085423	0.6465516
0.64329797	0.82266637	0.64100462
0.64335603	0.0513689	0.14202387
0.6470992	0.5667399	0.11950768
0.13765992	0.31308531	0.14193784
0.10207065	0.82734787	0.12014303
0.12535527	0.05675477	0.65546483
0.1307772	0.57095897	0.66330977
0.64930981	0.31389235	0.64558317
0.6434228	0.82659885	0.63272432
0.64356877	0.05408011	0.13798911
0.64256205	0.56875013	0.11878035
0.12936741	0.31705356	0.13775133
0.10088524	0.82554094	0.1197385
0.128872	0.05608616	0.66143669
0.13355769	0.57376819	0.66358734
0.64579825	0.31703944	0.64243831
0.64548041	0.82899098	0.62699254
0.6453233	0.05860836	0.13203213
0.63800251	0.57104244	0.12235309
0.12438375	0.32112595	0.1312158
0.10315675	0.82419286	0.12160008
0.13160891	0.05603466	0.6614389
0.13123869	0.57432229	0.6620558
0.64562896	0.32007417	0.63823716
0.64641718	0.82914951	0.62447878
0.64660467	0.06317506	0.12577633
0.63210092	0.57380978	0.12612074
0.12714917	0.32306913	0.12510098
0.1076547	0.82386017	0.12565038
0.13205095	0.05860126	0.65729591
0.12952969	0.57366353	0.65747502
0.64840932	0.32229946	0.63542279
0.64462056	0.82780892	0.62330172
0.64719464	0.06729895	0.12102564
0.62566476	0.57721451	0.12491103
0.13446142	0.32178781	0.12037451
0.11423303	0.82676549	0.12930671
0.13159235	0.06289421	0.65125897
0.13183523	0.57265604	0.65016068
0.65215875	0.32463348	0.6342354
0.6377898	0.82625181	0.62222294
0.64680776	0.06914177	0.11883028
0.61982149	0.58068442	0.12168757
0.14293094	0.31974164	0.11754568
0.12245912	0.83073897	0.13129792
0.13364167	0.06614149	0.64710989
0.13714114	0.57265709	0.64226537
0.65610738	0.32598258	0.63465226
0.62876822	0.82773505	0.62109125
0.64619955	0.06985788	0.12069809
0.61771542	0.58291796	0.11991639
0.14786697	0.31816388	0.1202048
0.1294641	0.83392709	0.13049797
0.13884957	0.06699156	0.64712625
0.14145661	0.57369315	0.6357837
0.65826056	0.32632733	0.63672981
0.62255232	0.83187684	0.62014629
0.64563871	0.07046679	0.12504335
0.62187835	0.58360079	0.12096743
0.14630251	0.31721471	0.12534852
0.13051481	0.83622567	0.12796582
0.14377242	0.06562939	0.64854773
0.14152701	0.57502644	0.63131537
0.65684725	0.32620311	0.63819277
0.62174114	0.83540877	0.62088003
0.64506045	0.06997805	0.12935373
0.63072721	0.58287947	0.12576233
0.13900671	0.3179134	0.13151585
0.12850195	0.83647057	0.12681143
0.14459726	0.06445371	0.6496984
0.13605664	0.57678764	0.62619042
0.65309783	0.32456482	0.63889009
0.62781535	0.83809658	0.62223009
0.64358686	0.06935944	0.13218473
0.64054005	0.58214984	0.12818583
0.13077544	0.31885865	0.13788563
0.13006621	0.83540817	0.12637756
0.13939138	0.06623492	0.65106216
0.13088321	0.57791962	0.62144028
0.64832223	0.32368648	0.63955079
0.63518457	0.83993768	0.62311467
0.64135907	0.06917466	0.13020054
0.64630251	0.58194802	0.12573994
0.12390812	0.31872953	0.13853313
0.13413739	0.83315148	0.12644372
0.13182864	0.06959151	0.65094392
0.13108685	0.5791104	0.618627
0.64399675	0.32406833	0.63851293
0.63697066	0.84122236	0.62253414
0.64007341	0.06894466	0.1262795
0.64725211	0.5819367	0.12032461
0.11839003	0.31841748	0.13392787
0.13947542	0.82970693	0.12569238
0.12696449	0.07330203	0.64848058
0.13522591	0.58190957	0.6169146
0.6421818	0.32498141	0.63671695
0.63568345	0.84283936	0.62143946
0.6405024	0.06918952	0.12280623
0.64566478	0.58213714	0.11481779
0.11684573	0.31918988	0.12760953
0.14331934	0.82639314	0.12241974
0.12667539	0.07596498	0.64540492
0.14132171	0.58443735	0.61693333
0.64333894	0.32660242	0.63467722
0.63488127	0.84400328	0.62225926
0.64277242	0.06916471	0.12041013
0.64216649	0.5826697	0.11469155
0.11901728	0.3215486	0.12147667
0.13977367	0.82474223	0.11940955
0.13075865	0.07656198	0.64169212
0.14601405	0.58615125	0.61930991
0.64658456	0.32796879	0.63101997
0.63653168	0.84440694	0.62732633
0.64511653	0.07050679	0.12108572
0.64053718	0.58276097	0.12033052
0.12369712	0.32540051	0.11888893
0.13198236	0.82606146	0.11675928
0.13472059	0.07528055	0.63719381
0.14443099	0.58736962	0.62185026
0.64920264	0.32868713	0.62913935
0.64025451	0.8440713	0.63681015
0.64601665	0.07359168	0.12289436
0.64249501	0.58222798	0.12799266
0.12953302	0.32927577	0.11735321
0.1257709	0.83091001	0.11291141
0.1329757	0.07354776	0.6321447
0.13660894	0.58739026	0.62423227
0.64788843	0.32914573	0.62811662
0.64168302	0.84263416	0.64652849
0.64308751	0.07407163	0.12384466
0.64782986	0.58134764	0.13408328
0.13318855	0.33098622	0.11685807
0.12537659	0.83755579	0.1109614
0.12868023	0.07267584	0.62617176
0.12669564	0.58640067	0.62562292
0.64233586	0.3303594	0.62880905
0.63925717	0.84132302	0.65145838
0.63550497	0.07347503	0.12378188
0.65668428	0.58048765	0.1344603
0.13305281	0.32946764	0.11972529
0.13060593	0.84403052	0.10992131
0.12420025	0.07289151	0.62108481
0.11866495	0.58426479	0.62511795
0.63391182	0.33309727	0.6334471
0.63598943	0.8407321	0.65105858
0.62592605	0.072428	0.12090345
0.66538684	0.58068057	0.12963406
0.1290984	0.32505259	0.12493931
0.13652889	0.84695942	0.1082293
0.12061397	0.07285834	0.61906582
0.11527046	0.5814046	0.62442923
0.62741623	0.33659035	0.63980859
0.63407357	0.84187238	0.64774999
0.61646165	0.07095659	0.11671276
0.66870714	0.58149438	0.12423625
0.12468183	0.32110899	0.13154915
0.14009562	0.84505579	0.11050633
0.12004505	0.07245596	0.62093939
0.11512816	0.57913864	0.62520414
0.62552292	0.34000937	0.64661286
0.63793747	0.84443593	0.64470819
0.60926368	0.07053626	0.11294319
0.66634664	0.58201851	0.12027867
0.12182183	0.31955175	0.13726226
0.13911017	0.84174349	0.11521587
0.12068385	0.07181492	0.62322705
0.11550616	0.57744487	0.62911158
0.62796368	0.34258417	0.64729245
0.64838445	0.84616225	0.64325864
0.60847924	0.07102954	0.1108917
0.65794112	0.5823659	0.11946153
0.12076952	0.31940727	0.13813736
0.13087914	0.84070129	0.11877429
0.12202244	0.07040906	0.61922639
0.11563296	0.57765595	0.63738057
0.63194632	0.34284277	0.64017148
0.66002805	0.84701395	0.64234837
0.61329242	0.07110266	0.11264646
0.64575864	0.58268843	0.1225263
0.12316953	0.32098631	0.13368646
0.12171898	0.84103798	0.12215199
0.12300918	0.06960624	0.61105908
0.11417399	0.58168027	0.64723107
0.63059627	0.34063972	0.63202634
0.66731973	0.84795655	0.64023913
0.62273135	0.07126468	0.11410284
0.63294888	0.58445304	0.12618313
0.12916776	0.32356308	0.12499934
0.11799494	0.8413635	0.1225982
0.12220452	0.07007302	0.60702315
0.11416961	0.58709813	0.65634717
0.62330314	0.33766372	0.62662381
0.66619484	0.84840109	0.63654456
0.63112654	0.07078965	0.11149871
0.62267526	0.5874759	0.12868855
0.1330628	0.32619873	0.11335791
0.12083636	0.84021591	0.12036876
0.12192306	0.07026325	0.60543797
0.11713329	0.59117123	0.66104177
0.61349526	0.33397706	0.6253812
0.65694289	0.84919821	0.63150603
0.634358	0.06971328	0.1092596
0.6166681	0.59013641	0.12880834
0.13213726	0.32833354	0.10277466
0.12986133	0.83789041	0.12005116
0.1236332	0.06980215	0.60702852
0.11854136	0.59198054	0.6610959
0.60507612	0.33112364	0.62873189
0.64606041	0.84889747	0.62712362
0.63211467	0.07017608	0.10632884
0.61467957	0.59148063	0.12832677
0.12634344	0.32858274	0.09506567
0.13898265	0.83603613	0.12128614
0.12607541	0.06859603	0.61071287
0.11649225	0.58830233	0.66056539
0.60612972	0.32955133	0.63378554
0.63740928	0.84488922	0.62649681
0.62606355	0.07091313	0.10504606
0.61367554	0.59050124	0.13138386
0.11601181	0.32804765	0.09596126
0.14254336	0.83468176	0.12395138
0.12770522	0.06783887	0.6128572
0.11213159	0.58287009	0.65771529
0.61355808	0.32762	0.63882666
0.63426341	0.8397791	0.63190989
0.62119361	0.07211263	0.10894581
0.61666343	0.58841923	0.13495003
0.1052989	0.32781124	0.10795784
0.14194993	0.83374537	0.12663364
0.12809928	0.06845205	0.61422811
0.10951091	0.57707328	0.65426845
0.62051945	0.32607424	0.64260484
0.63758572	0.83535324	0.64335355
0.62379532	0.07392931	0.11721402
0.623783	0.58643786	0.13611051
0.10150804	0.32774667	0.12232026
0.14015832	0.83291125	0.12723103
0.12496806	0.06952387	0.61544393
0.11237867	0.57223128	0.65123068
0.62328589	0.32581142	0.64343453
0.64068291	0.83379609	0.65159251
0.63174204	0.0749576	0.12561577
0.62902849	0.58522255	0.1341183
0.10293798	0.32781685	0.13425532
0.13918666	0.83092085	0.12897622
0.12327803	0.07175638	0.61753861
0.11783187	0.57013239	0.64775632
0.62230118	0.3262501	0.64115868
0.64206703	0.83538627	0.65107307
0.64155652	0.07544475	0.13189533
0.62928527	0.58417201	0.13054669
0.1078528	0.32569165	0.13963988
0.13825934	0.82827801	0.13177198
0.12510572	0.0736085	0.62172684
0.1213537	0.57008048	0.64549362
0.62088385	0.32534331	0.63675719
0.64266703	0.83835913	0.64299927
0.64480926	0.07438529	0.13267678
0.62392241	0.58271813	0.13065743
0.11099578	0.32104896	0.13786401
0.13540433	0.82634349	0.13503841
0.12755064	0.07286933	0.62571547
0.12204477	0.5725959	0.6419974
0.62264979	0.32200666	0.63193359
0.6439433	0.84073933	0.63396653
0.64187755	0.07185452	0.13036247
0.61827709	0.58067645	0.13506988
0.11027024	0.31838477	0.13043482
0.13040435	0.82627306	0.13994051
0.13079735	0.06989726	0.62864062
0.11987788	0.57672916	0.63582575
0.62862503	0.31832512	0.62804731
0.64778539	0.84068207	0.63111624
0.6381073	0.06909929	0.12525277
0.62055744	0.57885091	0.13990107
0.10805678	0.31917465	0.1207408
0.12434341	0.82940771	0.14233402
0.13256549	0.06628446	0.63066071
0.11809225	0.57949346	0.62984181
0.63325961	0.31612625	0.62632579
0.65207716	0.83768646	0.63822994
0.63540137	0.0669571	0.1195258
0.62695477	0.57804942	0.14189852
0.10535613	0.32169966	0.11269792
0.12186847	0.83353365	0.14244536
0.13353972	0.06308837	0.63200444
0.11905229	0.58140099	0.62560912
0.63580487	0.31534558	0.62867082
0.6517909	0.83308976	0.64877912
0.63667592	0.06584641	0.11591616
0.63029838	0.57794556	0.13637083
0.1038632	0.32456511	0.10969717
0.12738133	0.83580559	0.14022104
0.13494419	0.06087151	0.63481323
0.12220112	0.58197655	0.62571192
0.63561127	0.31592909	0.63394686
0.64406592	0.82829282	0.65508993
0.64164527	0.06557936	0.11522754
0.62648485	0.57780046	0.12562863
0.10398332	0.32532165	0.11203687
0.13426378	0.83624023	0.13460362
0.13466684	0.05992136	0.6389875
0.12529332	0.57908654	0.62925468
0.63504992	0.31736907	0.63717224
0.6319114	0.82478955	0.65315769
0.64484089	0.06398792	0.11841474
0.62057129	0.57637556	0.11471391
0.10344199	0.3248871	0.1174907
0.13651657	0.83557258	0.12893247
0.13329759	0.06014253	0.64234826
0.12622421	0.57590275	0.62951756
0.63709059	0.31881856	0.63875192
0.62559731	0.82467271	0.64625736
0.643709	0.06215739	0.12514623
0.61994995	0.57333689	0.10692483
0.10215515	0.32350825	0.12257942
0.13225724	0.83450774	0.1255093
0.13043192	0.06115654	0.64456804
0.12445631	0.57322988	0.62753334
0.64106029	0.31969932	0.6414129
0.62663187	0.82696882	0.63978239
0.63799371	0.06129191	0.13457601
0.62583242	0.56972675	0.10249719
0.10167194	0.32053597	0.12513063
0.12083333	0.83355588	0.12520937
0.12570212	0.06249715	0.64474715
0.12100246	0.57092284	0.62467447
0.64362298	0.3196369	0.64312376
0.62932335	0.82844271	0.63772478
0.63162461	0.06040377	0.14520364
0.63423602	0.56798515	0.10100338
0.10437295	0.31681047	0.12356099
0.10747705	0.832076	0.12834285
0.12155377	0.06317265	0.64235461
0.11937565	0.57030326	0.62185486
0.6413751	0.31836304	0.64318836
0.63208751	0.82874934	0.64193102
0.62848459	0.06108069	0.15319255
0.64180609	0.56811269	0.10325319
0.11462359	0.31273268	0.1196921
0.10078511	0.82992353	0.13043377
0.11921837	0.06212065	0.64046706
0.1200783	0.57061651	0.62360842
0.63520684	0.31653142	0.64065021
0.63143412	0.82831303	0.64909685
0.62808039	0.06213439	0.15501928
0.64389469	0.56878014	0.11129442
0.12802046	0.30909413	0.11842513
0.10387617	0.82669424	0.13093998
0.11927806	0.06028288	0.64083609
0.1219066	0.57163404	0.63036237
0.63123219	0.3153208	0.63439976
0.62841486	0.8279118	0.65257735
0.62957815	0.06116948	0.15058007
0.63950567	0.56834878	0.12202702
0.13896664	0.30787941	0.12049593
0.11149198	0.82273527	0.1302019
0.12083843	0.05851586	0.6432622
0.12460812	0.57334648	0.63586041
0.63264929	0.31454172	0.62755679
0.62594839	0.82878636	0.64830737
0.63186276	0.05844206	0.14220711
0.63135184	0.56562283	0.1312526
0.1443455	0.30818286	0.12528407
0.11948222	0.81983318	0.12827944
0.1217248	0.05761319	0.64620925
0.12545484	0.57460688	0.63767033
0.63659626	0.31406916	0.62708949
0.6235761	0.82902505	0.63737729
0.63073407	0.05498391	0.13413927
0.62357739	0.56221201	0.13619478
0.14323444	0.30935285	0.12978423
0.1221923	0.81734307	0.12804413
0.12210179	0.05853254	0.64767971
0.1238011	0.57496352	0.63513209
0.64299975	0.31324887	0.63579424
0.6244319	0.82732141	0.62551655
0.62722838	0.05220538	0.12971727
0.62116899	0.56113375	0.13304438
0.14153944	0.31130788	0.12861347
0.11879746	0.81578445	0.12844433
0.12152822	0.06037333	0.64854683
0.12227433	0.57288351	0.63096741
0.64749651	0.31175168	0.64829732
0.62890484	0.82335341	0.62028027
0.62527164	0.05115044	0.12976693
0.62559173	0.56484411	0.12346663
0.14241451	0.31128462	0.12425953
0.11350154	0.81601713	0.12556133
0.11810169	0.06190121	0.65009849
0.1224582	0.5688527	0.6294554
0.64548262	0.30971835	0.65649493
0.63251587	0.81798581	0.62349445
0.62517462	0.05183839	0.13295295
0.63266383	0.57080461	0.1159048
0.14445781	0.31037035	0.12045574
0.10884517	0.81586714	0.12035999
0.11576542	0.06274082	0.6528384
0.12541838	0.56516741	0.63275888
0.64092282	0.30821804	0.65586586
0.63621366	0.81497646	0.62933233
0.62722386	0.05409337	0.13449835
0.64143784	0.57528728	0.11339979
0.14616904	0.30838375	0.12207298
0.10934222	0.81512851	0.11377713
0.11627246	0.06246298	0.65684813
0.12980064	0.56374106	0.6403599
0.6366607	0.30811644	0.6489044
0.63681939	0.81554969	0.63303911
0.6291629	0.05613858	0.13226874
0.64852885	0.57565874	0.11528887
0.14676151	0.30561746	0.13009882
0.11312096	0.8147196	0.11131708
0.11768557	0.0618084	0.65878559
0.13332576	0.56508188	0.64723504
0.6360868	0.30872957	0.64012845
0.63519282	0.82024779	0.63258431
0.62934188	0.05577116	0.1295234
0.65200552	0.57217562	0.12074574
0.14407474	0.30383921	0.14053794
0.11988718	0.81472496	0.11785422
0.12094682	0.06155921	0.6560734
0.13538676	0.56882796	0.64930407
0.63869966	0.30913264	0.63466882
0.63688469	0.82664215	0.62912376
0.62971849	0.05302111	0.12679495
0.65719164	0.56729702	0.12934426
0.14073634	0.30260128	0.14903227
0.13128212	0.81619084	0.13005591
0.12269302	0.06059453	0.65061602
0.137016	0.57228551	0.64748671
0.64137915	0.30883695	0.63386325
0.639753	0.83020663	0.62653327
0.63147311	0.04891643	0.12418846
0.6641949	0.56298669	0.13882618
0.13659101	0.3033021	0.1539863
0.14339914	0.81944559	0.14239989
0.12221032	0.05959802	0.64454538
0.13931558	0.5728797	0.64472229
0.64206465	0.30850917	0.63618384
0.64489166	0.82911958	0.62765257
0.63732366	0.0451028	0.12094971
0.66923638	0.56025764	0.14474285
0.13307002	0.30722446	0.1526152
0.15365839	0.82453187	0.14702751
0.1199382	0.05819167	0.64056138
0.14290362	0.57162499	0.64358724
0.63932078	0.30912274	0.6375529
0.64930383	0.82564693	0.63213945
0.64653366	0.0465848	0.11565528
0.67091226	0.55838039	0.14578011
0.13232381	0.31146921	0.14755843
0.15986586	0.83004394	0.14327087
0.11485385	0.05611564	0.6396123
0.14748117	0.56979063	0.6444504
0.63470437	0.31087505	0.63730638
0.65008415	0.82230768	0.63610842
0.6539377	0.04916641	0.1128349
0.66844192	0.55684898	0.14125331
0.13286308	0.3160584	0.14334134
0.15744333	0.83336487	0.14032117
0.11390089	0.05470262	0.64144655
0.15127786	0.56929007	0.64457277
0.63281314	0.31385578	0.63806348
0.65064629	0.82059542	0.63674667
0.65822135	0.0500096	0.11448677
0.66546338	0.55611236	0.13147857
0.13270419	0.32020864	0.14114052
0.14710011	0.83471847	0.14121661
0.12031459	0.05284056	0.64491488
0.15307418	0.57180965	0.64480827
0.63460971	0.31544251	0.64127697
0.65327067	0.82067004	0.63221469
0.66144666	0.05296656	0.11685817
0.66279463	0.55662831	0.12108966
0.13202233	0.32286915	0.14111443
0.14054035	0.83516967	0.14287229
0.12884813	0.05147219	0.64604023
0.1514399	0.57520214	0.64690314
0.63960443	0.31373759	0.64575222
0.65706842	0.8214207	0.62791074
0.66341706	0.05630729	0.12071554
0.66036686	0.55996998	0.11792591
0.12809591	0.32499049	0.1410889
0.14153511	0.83575811	0.14153992
0.13856974	0.05168036	0.64194746
0.14513011	0.5777279	0.65073942
0.64567602	0.31085091	0.65036354
0.65887428	0.82194554	0.62753071
0.66698377	0.060445	0.12493962
0.66207669	0.56660282	0.1243314
0.12612463	0.32634724	0.14000255
0.14829154	0.83748471	0.13457463
0.14640579	0.05307696	0.63564481
0.13703568	0.57729522	0.65902315
0.65089477	0.30922181	0.65486944
0.65369012	0.82244312	0.63386748
0.67254024	0.06506802	0.12723834
0.66370226	0.57339517	0.13511347
0.12907078	0.32626424	0.13953231
0.15337785	0.83994637	0.12325666
0.15071766	0.05645876	0.62968515
0.13074106	0.57421278	0.66677779
0.65350728	0.30874078	0.65466703
0.64877875	0.82322993	0.64382195
0.67602123	0.06621897	0.12822014
0.6630837	0.57684433	0.14643549
0.13183327	0.3246317	0.13967706
0.15478417	0.84130734	0.11595651
0.15231319	0.0607705	0.62789397
0.1317165	0.57062988	0.66923788
0.65452763	0.30972095	0.65050061
0.64693247	0.82445982	0.64786439
0.67177959	0.06504019	0.12773618
0.65964051	0.57647123	0.15446278
0.13385244	0.3227919	0.14042537
0.15533379	0.84049107	0.11505788
0.14948794	0.0641214	0.63121405
0.13703394	0.56810073	0.6665231
0.65430941	0.31181912	0.64877024
0.64853352	0.82599809	0.64435343
0.65885295	0.06273333	0.12650189
0.653179	0.57271265	0.15447466
0.13449614	0.32323871	0.14198875
0.15468146	0.83891485	0.12175696
0.14322148	0.06578501	0.6361674
0.14202948	0.56748354	0.66096034
0.65604674	0.31337204	0.65085035
0.65092187	0.82680093	0.63976351
0.64571203	0.05935007	0.12703343
0.64675662	0.570565	0.14646014
0.13381957	0.32729091	0.14285759
0.15445752	0.83779585	0.1329186
0.13875838	0.06533509	0.63975378
0.14681515	0.56898165	0.65779791
0.66044461	0.31385818	0.65232751
0.65041614	0.82593253	0.63879475
0.64116657	0.05743643	0.12892965
0.64294696	0.57180076	0.13538836
0.13620045	0.33201675	0.14188349
0.15346881	0.83817869	0.14038556
0.13671359	0.06413496	0.64137517
0.15124289	0.57085577	0.65844834
0.6649146	0.3129256	0.65110971
0.64495233	0.8237179	0.64186796
0.64445858	0.05761133	0.13323693
0.64331167	0.57573563	0.12670201
0.14216503	0.33496109	0.13952584
0.14912248	0.839265	0.14451937
0.14006105	0.06287256	0.64154581
0.15426599	0.57239368	0.65894083
0.66892724	0.31148462	0.64822536
0.63851846	0.82218602	0.64571812
0.64895046	0.05986709	0.13811727
0.6485206	0.58078039	0.12449121
0.14965437	0.33372169	0.13623956
0.14282191	0.83919478	0.14599007
0.14633082	0.06134981	0.64272268
0.15353641	0.57356324	0.65821227
0.66931219	0.31066001	0.64547366
0.63417269	0.82315286	0.64807743
0.6481185	0.06368537	0.1399245
0.65496156	0.58337945	0.12880896
0.15774429	0.32946177	0.13388094
0.13609503	0.83723599	0.1446707
0.15040872	0.06092524	0.64501534
0.14700177	0.57415917	0.65526245
0.66252472	0.31041366	0.64353084
0.63198411	0.82569785	0.64749458
0.64098582	0.06725756	0.13718777
0.65807299	0.5833411	0.13488416
0.16158283	0.32525881	0.13434876
0.12978432	0.83476817	0.14408609
0.15091647	0.06128592	0.64661743
0.13595381	0.57455949	0.64998875
0.65222786	0.31082998	0.64333804
0.63367919	0.82806169	0.6434694
0.63309062	0.07079804	0.12887679
0.657659	0.58280764	0.13797577
0.1601536	0.32263258	0.13675429
0.12650801	0.83306059	0.14502034
0.14600122	0.06115905	0.64651585
0.12482812	0.57482641	0.64459678
0.64309747	0.31109812	0.64367106
0.63514106	0.82951151	0.63802632
0.63083506	0.07442461	0.1180635
0.65472348	0.58186806	0.1363902
0.15529273	0.32273969	0.14043989
0.1277431	0.83262264	0.14618822
0.13750108	0.06143601	0.64329551
0.11956615	0.57530229	0.64086388
0.6407708	0.31185963	0.64322821
0.63661463	0.8294688	0.63273146
0.63583501	0.07523097	0.10877266
0.65185898	0.58106822	0.13144142
0.14766747	0.32364403	0.14440065
0.13085507	0.83324362	0.14543624
0.12905249	0.06263494	0.6395268
0.12553413	0.57601626	0.63921836
0.64476724	0.31439556	0.64204979
0.637506	0.82800336	0.62967506
0.64293589	0.07406697	0.10511478
0.65040019	0.58014245	0.12696185
0.14128489	0.32325089	0.14636926
0.13302363	0.83435753	0.14195058
0.12116459	0.06414338	0.63851616
0.13718364	0.57601636	0.63915815
0.65079798	0.31849638	0.64061517
0.63410078	0.82736546	0.63269431
0.64841954	0.0715917	0.10914048
0.64770693	0.57809147	0.12513881
0.13651094	0.32143537	0.14363508
0.12940909	0.83490426	0.13783681
0.11558945	0.06569986	0.64158602
0.14831142	0.57562298	0.63959685
0.65549231	0.32351636	0.63808825
0.63190633	0.82811534	0.63843177
0.64796702	0.06670151	0.11804815
0.64396579	0.57616782	0.1265674
0.13316726	0.31926704	0.13720779
0.12028935	0.83422034	0.1342659
0.11510888	0.06619206	0.64538613
0.15155202	0.5749441	0.63990218
0.65561545	0.32856682	0.633613
0.63151372	0.82955559	0.64166926
0.6431152	0.06342753	0.12629744
0.63936336	0.57484759	0.12993339
0.13237878	0.31770021	0.12913259
0.10998805	0.83316247	0.13187714
0.11993509	0.06448282	0.64688582
0.14360353	0.57428245	0.64105847
0.64934853	0.33087696	0.62873246
0.63129481	0.83172722	0.64221202
0.63770521	0.06403612	0.1283687
0.6354012	0.57515307	0.13123327
0.13221332	0.31691967	0.12164943
0.10258631	0.83313489	0.12958801
0.12972026	0.06126135	0.64399013
0.12951451	0.57467748	0.6433517
0.64137289	0.33041471	0.62582026
0.63408289	0.83305565	0.64008086
0.63458555	0.06737761	0.12378783
0.63448802	0.57829929	0.12863566
0.1307351	0.31644203	0.11686254
0.10138106	0.83334506	0.12503645
0.14016044	0.05793033	0.63686291
0.11563864	0.57616385	0.64513955
0.6350629	0.32860992	0.62510044
0.63960499	0.83387296	0.63796484
0.6363852	0.07125742	0.11666106
0.63584407	0.58179773	0.12434522
0.12868276	0.31551059	0.11491755
0.10333047	0.83365651	0.11813115
0.14576603	0.05640482	0.63013739
0.10642781	0.57821546	0.64479993
0.62981484	0.32631272	0.62737334
0.64556333	0.83530978	0.63719292
0.64191364	0.07301926	0.11178078
0.63860559	0.58443371	0.12052084
0.12469324	0.31360231	0.11556463
0.10380494	0.83272369	0.11035309
0.14323632	0.0581587	0.62618381
0.10273441	0.57868223	0.64045133
0.62483396	0.32528298	0.6300818
0.64830903	0.83675185	0.63656301
0.64708274	0.07318423	0.11095202
0.63973526	0.58460713	0.11765812
0.11903898	0.31195542	0.11650336
0.10137591	0.82885987	0.1055171
0.13347701	0.06237124	0.62523077
0.10592274	0.57575468	0.63181089
0.62028129	0.32543994	0.63002123
0.64574211	0.83902886	0.63663448
0.64576072	0.07277733	0.11356232
0.63880658	0.58088828	0.11427841
0.1141759	0.31209619	0.11665321
0.09647028	0.82387927	0.1056505
0.11981792	0.06745681	0.6266229
0.11414979	0.57163818	0.62332166
0.61513099	0.32545957	0.62885475
0.64059295	0.84160645	0.63456754
0.6387801	0.07097832	0.11936698
0.63499692	0.57579583	0.10849007
0.11112372	0.31277209	0.11559428
0.09346028	0.8191073	0.10871294
0.10751213	0.07078696	0.62823753
0.12280939	0.56793379	0.6210454
0.61152401	0.32519686	0.62560919
0.63518944	0.8429561	0.62953102
0.63396724	0.06877054	0.12670152
0.6282651	0.57149486	0.10035335
0.10947606	0.31531344	0.10994509
0.09628455	0.81559261	0.1128529
0.09985125	0.07119136	0.62698639
0.13003111	0.56749525	0.62548306
0.61208312	0.32460496	0.62241325
0.62918463	0.84345424	0.62782934
0.63633042	0.06565765	0.13344343
0.62150837	0.56971486	0.09352225
0.10836569	0.31866542	0.10128097
0.1050565	0.81490436	0.11618333
0.0975529	0.07036203	0.62434231
0.1320921	0.57116703	0.63472738
0.6151254	0.32493565	0.62294538
0.62446219	0.84252499	0.6275293
0.64565487	0.06078153	0.13836456
0.61415872	0.57304288	0.09407303
0.10549543	0.32076836	0.09321638
0.11816461	0.81625901	0.11669622
0.10194403	0.06955642	0.62447313
0.12682	0.57650962	0.64131036
0.61857014	0.32822601	0.62343229
0.62454024	0.8416475	0.63038412
0.65434606	0.05721843	0.14095575
0.60657038	0.57699561	0.10212755
0.10091153	0.32079085	0.08873961
0.13077192	0.81857608	0.11488147
0.11065367	0.06904296	0.62652884
0.11886777	0.58167126	0.6379825
0.61962707	0.33225473	0.6269931
0.63042147	0.84398705	0.63690333
0.65184764	0.05564639	0.1414886
0.60201462	0.57961113	0.11409843
0.09441267	0.31789366	0.09159568
0.1394857	0.82125494	0.10840019
0.1212155	0.06923839	0.63095066
0.11001292	0.58318444	0.626703
0.61635326	0.33526344	0.63234705
0.63795656	0.8464083	0.63858243
0.6380114	0.05628123	0.14030837
0.60092442	0.57988161	0.12452014
0.08652374	0.31416242	0.10120531
0.14523459	0.8231163	0.09946682
0.13048471	0.06938865	0.63436584
0.10342711	0.58144155	0.61098271
0.61153328	0.33560788	0.63577811
0.64100174	0.84768356	0.63506971
0.61954286	0.06050485	0.13736335
0.60247028	0.57784524	0.13028023
0.08239424	0.3107496	0.10871149
0.14838262	0.82495961	0.09409907
0.13246113	0.06902989	0.63197402
0.1016026	0.5800541	0.59672541
0.60962599	0.3320711	0.64026152
0.63923792	0.84744325	0.63133595
0.60601693	0.06393063	0.13539304
0.60624068	0.57551241	0.13101336
0.08139252	0.30839116	0.11362155
0.15007539	0.82773419	0.09133115
0.12649274	0.06837767	0.62753524
0.10442735	0.58086736	0.58970312
0.61243316	0.32788726	0.64529032
0.63271667	0.84455227	0.62868718
0.60074303	0.06488875	0.13512795
0.61012141	0.57273263	0.12765475
0.08360614	0.30838823	0.11513148
0.15081202	0.83053951	0.09384838
0.11703833	0.0671951	0.62462167
0.11274158	0.58569784	0.58816384
0.6167913	0.32533921	0.64798967
0.62793541	0.84128628	0.62852278
0.60355452	0.06371887	0.13615881
0.61237423	0.56954468	0.12210581
0.09019043	0.31002382	0.11564083
0.1473888	0.83242008	0.10176878
0.10804278	0.06665895	0.62579405
0.12213883	0.59135862	0.59137991
0.61963403	0.32430607	0.64710219
0.62865976	0.83949784	0.62910377
0.61212224	0.06073966	0.13989101
0.6108728	0.5681705	0.11691236
0.09592442	0.31267892	0.11773389
0.14029137	0.832832	0.11136793
0.10467789	0.0671485	0.63111368
0.1281853	0.59434141	0.59694064
0.62043161	0.3256137	0.64031155
0.6308391	0.83910367	0.62719719
0.62130714	0.06036574	0.1446318
0.60665817	0.56855969	0.11422047
0.09834495	0.31670378	0.11978809
0.13299704	0.83144972	0.11939277
0.10619352	0.06782758	0.63386759
0.13007111	0.59127491	0.60242421
0.62038781	0.32886813	0.62952179
0.63505154	0.84043749	0.62443692
0.62886784	0.06174004	0.14725508
0.60810392	0.57058123	0.11457018
0.09792169	0.32095948	0.12091529
0.1279961	0.83036182	0.12232158
0.1114836	0.06848263	0.63145275
0.12643193	0.58413001	0.60718029
0.62064258	0.33226327	0.62206759
0.64068901	0.84179111	0.62249515
0.63421878	0.0620404	0.14558986
0.61419198	0.57565726	0.11757929
0.09489737	0.32392555	0.11783083
0.128056	0.83103802	0.11951584
0.11958124	0.0686674	0.6285762
0.11888192	0.57707994	0.61044906
0.62220894	0.33554788	0.61824153
0.64544355	0.84120021	0.62439712
0.63544379	0.06169629	0.13751942
0.62041484	0.5800258	0.12116392
0.09346372	0.32464635	0.11004532
0.13186513	0.83185439	0.11359948
0.12467427	0.06820828	0.62748416
0.11308803	0.57314148	0.61346947
0.62422718	0.33664992	0.61916658
0.65032344	0.83991305	0.63291162
0.6319512	0.06064911	0.12850308
0.62486069	0.58128522	0.1235758
0.09533822	0.32336393	0.10170616
0.134674	0.83163903	0.10766719
0.12603206	0.06792041	0.63135601
0.10944832	0.57288683	0.61406627
0.62703524	0.33542361	0.62475884
0.65428486	0.83702984	0.6461442
0.62531308	0.06008805	0.1237319
0.62622828	0.57975585	0.12431311
0.10061756	0.32089495	0.09669797
0.13359554	0.83088191	0.10660727
0.12632553	0.06738678	0.6384594
0.11004161	0.57478006	0.61309289
0.62915347	0.33284859	0.63050638
0.65474795	0.83400635	0.66123603
0.61699944	0.06207784	0.12367063
0.62496534	0.57674199	0.12325509
0.10838589	0.31780467	0.09725925
0.1285238	0.8293775	0.11218664
0.12402433	0.06659973	0.64292179
0.11333788	0.57729056	0.61287431
0.62911724	0.32844708	0.63468911
0.65164261	0.83385715	0.67319327
0.61250484	0.06539162	0.12678236
0.62210167	0.57504817	0.12056
0.11525518	0.31605889	0.1017264
0.12268735	0.82850177	0.1199559
0.12070309	0.06642504	0.64299773
0.11444356	0.57918486	0.61502815
0.62846794	0.32364841	0.6362992
0.64635368	0.83367714	0.67684266
0.61240561	0.06940722	0.1290988
0.62205011	0.57510116	0.1182562
0.11880817	0.31616726	0.10720954
0.12003074	0.8286349	0.12767027
0.11650622	0.06607617	0.6396645
0.11462159	0.58074554	0.62110269
0.62684191	0.32021803	0.63467961
0.64126757	0.83333937	0.67383252
0.61596434	0.07212479	0.12787877
0.62617962	0.57560409	0.11714898
0.12120645	0.31802392	0.11045799
0.12051425	0.82859868	0.1325226
0.11021117	0.065902	0.63700905
0.11385761	0.58200163	0.63003282
0.62547728	0.31792591	0.63218635
0.63888302	0.83251951	0.6656773
0.61944692	0.07171196	0.12506076
0.63165696	0.57583153	0.12053728
0.12368806	0.32246102	0.11123063
0.12518823	0.82837789	0.13301705
0.10495868	0.06646205	0.63635698
0.11385977	0.58220534	0.6397855
0.62656932	0.31917169	0.62988138
0.6395937	0.83057943	0.65674403
0.62022108	0.06885623	0.12112999
0.6374881	0.57474577	0.12835406
0.12685252	0.32737524	0.11225194
0.13150148	0.82802136	0.13274423
0.10252075	0.06725159	0.63473252
0.11789203	0.58085951	0.65020262
0.6294688	0.32177328	0.63009636
0.64368439	0.82906528	0.6503523
0.62033937	0.06498091	0.11782714
0.64266978	0.57310756	0.13575422
0.12960086	0.32932185	0.11646981
0.13386723	0.82755008	0.1338544
0.10433157	0.06806116	0.6330767
0.12264929	0.57763226	0.65870266
0.6334414	0.32306602	0.63571849
0.64743486	0.82828774	0.64629902
0.62123116	0.06136312	0.11650322
0.64511327	0.57343309	0.14052703
0.13138014	0.32682985	0.12266762
0.13296422	0.82715649	0.13582622
0.11102607	0.06824566	0.63087708
0.12793125	0.57347158	0.66216857
0.63749294	0.32291855	0.6423681
0.64747953	0.82888818	0.6464871
0.624028	0.05931976	0.11664658
0.64598845	0.57397163	0.14193607
0.13320249	0.32211932	0.1284816
0.1294072	0.82662469	0.13844367
0.11773759	0.06740457	0.62861541
0.13365834	0.56968987	0.66352632
0.6396939	0.31959932	0.64668588
0.64402146	0.83121146	0.64588719
0.63027113	0.0590218	0.11987098
0.64679876	0.57452417	0.1401669
0.13445073	0.31819197	0.13245725
0.12468128	0.82684109	0.14020837
0.12258485	0.06636863	0.62919295
0.13586246	0.56758902	0.6632275
0.64019902	0.31491717	0.64645477
0.63723353	0.83312719	0.64350388
0.63663014	0.06027467	0.12475234
0.64778564	0.57482293	0.13819108
0.13603424	0.31601682	0.13376226
0.12043181	0.82779064	0.14047158
0.12436251	0.0654214	0.6328236
0.13593788	0.56859143	0.66187038
0.6386598	0.31061897	0.64322932
0.63110665	0.83343856	0.64286859
0.63956719	0.06161412	0.12834181
0.65144687	0.57336458	0.13758337
0.13843893	0.31578463	0.13715597
0.11674454	0.82909234	0.14021532
0.1216878	0.06501153	0.63931829
0.13419506	0.57259583	0.66236341
0.63647483	0.30737516	0.64179588
0.62926188	0.83079297	0.63957406
0.64056889	0.06200971	0.13104456
0.65631953	0.57146481	0.13926504
0.13891977	0.3159452	0.14595007
0.11676268	0.83095606	0.14066851
0.12057081	0.06516267	0.646391
0.13173556	0.57705299	0.66122434
0.63466965	0.30680085	0.64510057
0.6324308	0.82560368	0.63514705
0.64156143	0.06220699	0.12991938
0.6588554	0.57008148	0.14143269
0.13771312	0.31570998	0.15487806
0.11951335	0.83299396	0.14238984
0.12373022	0.06433202	0.64982647
0.13136384	0.57943165	0.65816042
0.63408725	0.30799618	0.65276608
0.63928265	0.82065758	0.63220813
0.64400468	0.06237556	0.12759071
0.65902394	0.56955713	0.14131885
0.13707087	0.31495783	0.16061915
0.12203334	0.83511241	0.14272612
0.1299776	0.06213351	0.64962322
0.13109752	0.57961093	0.65519982
0.63642292	0.30999816	0.65838622
0.64325551	0.81771034	0.62795934
0.64886153	0.06213648	0.12623905
0.652585	0.57014285	0.13948899
0.13637637	0.31500572	0.16169926
0.12520738	0.83777662	0.14225006
0.13781035	0.05848942	0.64565114
0.13125596	0.5788891	0.65025902
0.64255514	0.31317708	0.65896256
0.64378752	0.81781495	0.62583306
0.65455028	0.06143392	0.12496779
0.64500139	0.57061563	0.1368106
0.1369535	0.31670016	0.15785634
0.12802796	0.84023175	0.14200761
0.14309502	0.05262011	0.64041125
0.13257993	0.57689753	0.6463124
0.65124476	0.31443351	0.65791468
0.6415214	0.82104524	0.62713329
0.66079294	0.05993735	0.12450848
0.64473009	0.57120263	0.13447748
0.13782588	0.31966554	0.15097668
0.13058415	0.84059082	0.1398242
0.1462015	0.04728755	0.63918965
0.13397974	0.57371395	0.6454251
0.65962243	0.31411497	0.65726065
0.63782747	0.8236614	0.62964367
0.66596936	0.05793269	0.12418468
0.64747186	0.5723327	0.13468734
0.13686967	0.32284737	0.14135976
0.13370774	0.83746955	0.136302
0.1477108	0.04468761	0.64019931
0.13649981	0.57054026	0.64600665
0.66463196	0.31216683	0.65849207
0.63708342	0.82369922	0.63301245
0.66807292	0.05693354	0.12441169
0.65111553	0.57310786	0.13448958
0.13647172	0.32492087	0.13122393
0.1351821	0.83250177	0.13450781
0.14500516	0.04500652	0.64266796
0.1388928	0.56776933	0.65131267
0.6653297	0.30787448	0.6611194
0.63856077	0.8212318	0.63385314
0.66897024	0.05725128	0.1261624
0.65137822	0.57319235	0.13108204
0.13823361	0.32573199	0.12440397
0.13444061	0.82799806	0.13513435
0.1416603	0.0474999	0.64561141
0.1405303	0.56645147	0.65418815
0.66172747	0.3033893	0.66211527
0.64034775	0.81671696	0.63184656
0.66774974	0.05923685	0.12857089
0.64711595	0.57176624	0.12446987
0.14111209	0.32409892	0.12595897
0.13130649	0.82578248	0.13483473
0.14155629	0.05073513	0.64589249
0.14084123	0.56667516	0.65009645
0.65634153	0.29986985	0.65940986
0.64110093	0.81362801	0.62903019
0.66556043	0.06212475	0.13099817
0.64551748	0.56826058	0.11613636
0.14606757	0.3198004	0.13685322
0.12663637	0.82693424	0.13235477
0.14420253	0.05394781	0.64599725
0.13704777	0.56695608	0.64600523
0.65459458	0.29851828	0.65353078
0.6387905	0.81280725	0.6258666
0.66728732	0.06408522	0.13278311
0.64621576	0.56666222	0.10993308
0.15218035	0.31612397	0.14864544
0.12694602	0.82978253	0.12865555
0.15040461	0.05674425	0.64816682
0.13170478	0.56647506	0.64473774
0.6589676	0.30113884	0.64649028
0.63421221	0.81243579	0.62450109
0.6703557	0.0641168	0.1321402
0.65026908	0.56740015	0.11034352
0.15742436	0.31457761	0.15496064
0.12936764	0.83215383	0.12507311
0.15631124	0.05831914	0.64991485
0.13029479	0.56407372	0.64597901
0.66646161	0.30577174	0.64225806
0.6264428	0.81176294	0.62541011
0.6734579	0.06216992	0.12893087
0.65675876	0.56920008	0.11884351
0.16075137	0.31741481	0.15366207
0.13195023	0.83214915	0.12239538
0.15856825	0.05940521	0.65170045
0.13248842	0.56102167	0.64866719
0.67479255	0.31056322	0.64299455
0.61805788	0.80950448	0.62733275
0.67473651	0.05804835	0.12492851
0.65958387	0.57185659	0.13047448
0.16310992	0.32213039	0.14782218
0.13727802	0.82991126	0.12249771
0.158816	0.06074892	0.6490158
0.13553139	0.55855733	0.65210912
0.68105267	0.31340414	0.64745573
0.61804966	0.80895465	0.62831813
0.66941536	0.05420831	0.12262199
0.65895431	0.57255707	0.14040112
0.16715527	0.32327816	0.14156756
0.14073817	0.82748054	0.12769701
0.15623291	0.06211464	0.64236576
0.13715181	0.55777055	0.65616826
0.68143455	0.3129147	0.65064898
0.62147153	0.81184237	0.62976557
0.66526509	0.05197048	0.12487445
0.65526888	0.57032981	0.14391432
0.1730525	0.32323683	0.13971834
0.14186959	0.82577495	0.13370102
0.15387668	0.06327962	0.63823564
0.13509998	0.55866711	0.65882118
0.67762928	0.31038083	0.64738008
0.62727782	0.81574527	0.6313787
0.66112262	0.05111837	0.13060526
0.65143748	0.5678646	0.14009015
0.17906513	0.32184862	0.14437366
0.14067163	0.82595723	0.1367492
0.15315102	0.06029735	0.63747534
0.13458903	0.55964265	0.65937272
0.67338499	0.30595558	0.64193561
0.63165587	0.81906353	0.63319348
0.65571047	0.05211511	0.13607517
0.65121577	0.5673204	0.13330085
0.18269006	0.318422	0.14991117
0.13465321	0.82786653	0.13746034
0.14979384	0.05602879	0.64116411
0.13785519	0.56039207	0.65913922
0.66917059	0.30233803	0.63782409
0.63346984	0.82036607	0.63321393
0.65206869	0.05454751	0.13802267
0.65481845	0.56986132	0.12762672
0.18036498	0.31561536	0.15328331
0.12926024	0.82816053	0.13137776
0.1438612	0.05443054	0.64910611
0.14255395	0.56152431	0.6581934
0.6660534	0.30188951	0.636577
0.63524818	0.81931299	0.63041012
0.64678886	0.05833442	0.13404465
0.66124655	0.57400439	0.12565033
0.17198767	0.31287169	0.15344563
0.12750903	0.827026	0.11847234
0.13669134	0.053628	0.65733051
0.14733075	0.56468033	0.65640986
0.66312433	0.3045175	0.6368431
0.63564118	0.81701414	0.62884457
0.6432206	0.0627101	0.12803522
0.66660083	0.57607962	0.12704819
0.1624785	0.31139051	0.15255168
0.12870943	0.8258353	0.1071276
0.13006355	0.05469965	0.66499337
0.14770193	0.56866901	0.65549086
0.65970882	0.30958039	0.63507138
0.63686634	0.81545741	0.62824266
0.643833	0.06603426	0.12528216
0.66771132	0.57565502	0.13187508
0.15509491	0.31192145	0.15206909
0.13175178	0.82515739	0.10253953
0.12846466	0.05631136	0.66833376
0.1452709	0.57203365	0.65521291
0.65781594	0.31502363	0.63269201
0.63928036	0.81706332	0.62919096
0.64640116	0.0677217	0.12660141
0.66735394	0.57383652	0.13791731
0.15228459	0.31335555	0.14981945
0.13288151	0.825224	0.1061631
0.13069936	0.05606476	0.66612919
0.1410585	0.57450906	0.65614979
0.6569974	0.31893179	0.63215646
0.64159808	0.82220158	0.63078957
0.65028179	0.06860079	0.12955213
0.66476479	0.571821	0.14089006
0.15392861	0.31515683	0.14619152
0.13029025	0.82496226	0.11484566
0.13269064	0.05544925	0.66074388
0.13574507	0.57525803	0.65751076
0.65645813	0.321048	0.6352659
0.6447411	0.82862036	0.62844945
0.65295938	0.06743475	0.13060603
0.66086553	0.57223994	0.13947756
0.1553222	0.3159618	0.14088316
0.12747883	0.8251321	0.12346446
0.13217832	0.05535129	0.65162671
0.13313702	0.57466789	0.65651812
0.65559834	0.32078828	0.64206696
0.64844511	0.83458786	0.62547724
0.65153657	0.06501189	0.12754067
0.65909316	0.57398783	0.13413813
0.15123794	0.3156312	0.1349935
0.12557819	0.82616199	0.13031256
0.12926286	0.05573488	0.64148135
0.13416911	0.57410997	0.65401197
0.65124052	0.31971464	0.64875034
0.65166982	0.83856814	0.62375726
0.64639234	0.06384072	0.1221484
0.6564547	0.5755524	0.12659917
0.14036185	0.31548724	0.13171758
0.12508478	0.82635051	0.13426486
0.12545921	0.05748241	0.63571676
0.13674655	0.57405983	0.65100862
0.64312705	0.32032486	0.65198026
0.6542981	0.84010887	0.62259569
0.63705905	0.06398817	0.1158282
0.65267272	0.57624535	0.1205736
0.12952872	0.31566364	0.12950206
0.12629114	0.82669084	0.13453172
0.12149739	0.05967447	0.63320381
0.13865314	0.57444129	0.64548192
0.63344917	0.32299748	0.65100149
0.65322718	0.84036151	0.62427075
0.62656988	0.06700733	0.11021524
0.64997379	0.57479283	0.11762331
0.12344117	0.31663878	0.12700672
0.12671639	0.82751168	0.13427732
0.11796876	0.06206698	0.63347716
0.14006859	0.5757719	0.63914399
0.62434145	0.3268395	0.64574381
0.65038249	0.84017485	0.62709336
0.61959289	0.07006806	0.10811087
0.6471903	0.57334805	0.11958686
0.11971408	0.31831005	0.12552164
0.12683731	0.8279084	0.13271092
0.1169206	0.064443	0.63450106
0.14167747	0.5779491	0.63491451
0.62094603	0.33011821	0.63890257
0.64845396	0.84010936	0.63068464
0.61857759	0.0713359	0.10921759
0.64498156	0.57465495	0.12291682
0.11548265	0.3194557	0.12275484
0.12749435	0.82924516	0.12917624
0.11929048	0.06580457	0.63270244
0.14299965	0.58051071	0.63177292
0.62234114	0.33121592	0.63431395
0.64768372	0.84035208	0.63702427
0.62504531	0.07158709	0.11189734
0.6432525	0.57940399	0.12460681
0.10860366	0.32024024	0.11992872
0.13019686	0.83117548	0.12681534
0.12415311	0.06787883	0.63069406
0.142327	0.58243534	0.63040624
0.62359508	0.33010461	0.63354106
0.64790855	0.84104557	0.64358804
0.63231863	0.07018442	0.11530212
0.6390336	0.58593576	0.12596302
0.09907477	0.32127264	0.11968212
0.13628503	0.83312954	0.1256171
0.12932002	0.0716721	0.62777427
0.13875005	0.58291581	0.63055013
0.62500914	0.32802335	0.63657523
0.64659019	0.84223994	0.65094687
0.63263593	0.06806524	0.11872251
0.63308313	0.59073434	0.1265059
0.09018836	0.3227965	0.12066775
0.14334848	0.83600151	0.12702514
0.13199521	0.07586087	0.62338514
0.13406471	0.58231103	0.63061355
0.62404728	0.32645632	0.6408398
0.64281071	0.84383336	0.6593585
0.62837686	0.06653527	0.12315335
0.62633954	0.59105536	0.12630835
0.08467663	0.32526274	0.12099198
0.14813189	0.83864195	0.13322745
0.1297612	0.0806362	0.61913882
0.12865541	0.58050903	0.63004393
0.62172569	0.32643045	0.64326471
0.63825628	0.84458603	0.66720506
0.62049773	0.06565184	0.12961773
0.61986085	0.58753811	0.12665059
0.08266838	0.32795118	0.11671293
0.14715435	0.84081292	0.14069781
0.12269495	0.08256486	0.61429363
0.12357497	0.57948155	0.62710036
0.62184302	0.32851269	0.64332855
0.63588864	0.84337466	0.6728677
0.6157606	0.06553521	0.13510798
0.61733275	0.58149055	0.12584232
0.08444633	0.32954627	0.10829659
0.13959891	0.84243596	0.145746
0.11366771	0.0805742	0.61065802
0.12014454	0.58157061	0.62033904
0.62146176	0.33213897	0.64057398
0.63754924	0.84201387	0.66953686
0.6178915	0.06648347	0.13683038
0.61678142	0.57601752	0.12307966
0.08743518	0.32897749	0.1003194
0.12965591	0.84281786	0.14636634
0.10771249	0.07741685	0.61296398
0.11886397	0.58411487	0.61263109
0.619911	0.3364379	0.63646928
0.64305573	0.84149657	0.65844053
0.62168129	0.06825086	0.13411956
0.61532013	0.57366021	0.12104938
0.09037504	0.32742534	0.09342486
0.1219623	0.84324327	0.14167331
0.10517383	0.07325039	0.62131008
0.12002389	0.58517147	0.60596595
0.61777254	0.33979343	0.63177039
0.64976083	0.84165033	0.64804532
0.62181295	0.07056289	0.1295779
0.61384868	0.57484065	0.12094132
0.09267761	0.32699516	0.09451287
0.11855484	0.84393829	0.13388878
0.10411468	0.06977376	0.63189301
0.12160365	0.58601711	0.60223488
0.61720129	0.34058106	0.62659684
0.65386256	0.84185853	0.64252267
0.61394867	0.07215811	0.1263587
0.61080964	0.57789584	0.12470317
0.09509404	0.32816738	0.09976479
0.11923729	0.84357047	0.12460889
0.10405852	0.06802763	0.64029212
0.12038619	0.58631393	0.60149011
0.62023405	0.33835933	0.62173616
0.65151657	0.84199829	0.64485105
0.60026974	0.07175574	0.12565826
0.60743831	0.58046963	0.12817366
0.09607683	0.32963404	0.10176935
0.12070769	0.84144439	0.11596851
0.10294055	0.06679528	0.64310985
0.11023169	0.58550669	0.60246779
0.62321832	0.33373789	0.6161567
0.6388946	0.84133454	0.65179227
0.58882203	0.0697249	0.12864658
0.60535763	0.57930035	0.12599513
0.09382115	0.33108203	0.10240983
0.12048612	0.83710604	0.1099741
0.10154147	0.06725829	0.63923723
0.08997282	0.5843338	0.60527054
0.62296079	0.32813103	0.61119781
0.62352448	0.83978691	0.65900692
0.58436366	0.06566116	0.1338046
0.60101973	0.57488031	0.11984033
0.0902969	0.33099358	0.1026085
0.1183125	0.83251369	0.10980682
0.10230481	0.0683242	0.63073146
0.07044491	0.58369014	0.61015044
0.61758812	0.32239148	0.60943813
0.61233871	0.83824434	0.6635919
0.58898588	0.06199604	0.13617633
0.59575203	0.57085651	0.11123779
0.08731988	0.32833387	0.10175424
0.11539137	0.83059388	0.11338307
0.10526051	0.068538	0.62091646
0.06154593	0.58338577	0.61397718
0.60740113	0.3189681	0.61203641
0.60615354	0.83640456	0.66153303
0.59919332	0.06138644	0.13476193
0.5935511	0.56898342	0.10723383
0.08506497	0.32457919	0.10188537
0.11156001	0.83126947	0.11778542
0.10938161	0.06901263	0.61551176
0.06445837	0.58282955	0.61625824
0.59721706	0.31935946	0.61848406
0.6085325	0.83421546	0.65783903
0.61040325	0.06293195	0.12953564
0.59550766	0.56972692	0.11122458
0.08410443	0.32086785	0.10130423
0.10715032	0.8324147	0.12234069
0.11236117	0.06809257	0.61693292
0.07366315	0.58199528	0.6172878
0.59034755	0.32055294	0.62606042
0.61622249	0.83227671	0.65467005
0.61786834	0.06433238	0.12310568
0.60092281	0.57154291	0.1154875
0.08640876	0.31746277	0.10023151
0.10231798	0.83289749	0.12465625
0.11215191	0.06574816	0.62240565
0.08327539	0.58105187	0.61861372
0.58774662	0.32075096	0.63135789
0.62364887	0.83103069	0.65076021
0.62314247	0.06330482	0.11962854
0.6073846	0.57216478	0.11957301
0.08978847	0.31524469	0.09944452
0.09599832	0.83069232	0.12432997
0.11011863	0.06355325	0.62855949
0.09347948	0.58041096	0.62087544
0.59080567	0.31978367	0.63398821
0.63073206	0.83180928	0.64402103
0.62696683	0.06043942	0.11941669
0.6127335	0.57155993	0.12253646
0.09235774	0.31350674	0.09687614
0.09123971	0.82676712	0.12012125
0.11045428	0.0608346	0.6336626
0.10286403	0.57956259	0.62300583
0.59663696	0.31871727	0.63354283
0.63465279	0.83466716	0.63556977
0.6292433	0.05996488	0.12050756
0.61570922	0.5713232	0.12145805
0.09388981	0.31063059	0.09494618
0.09233274	0.82276871	0.11412036
0.114126	0.05817053	0.63698692
0.10883042	0.57781141	0.62541448
0.60399636	0.31960443	0.63000754
0.63503671	0.83750943	0.6294518
0.62950155	0.06171635	0.12230768
0.61511896	0.5737383	0.12082599
0.09539425	0.30640994	0.09458338
0.09755381	0.81876584	0.10983637
0.11898623	0.05624934	0.63892735
0.11134314	0.57514998	0.62621701
0.61172542	0.32172695	0.62566739
0.63439438	0.8390486	0.62564604
0.62542234	0.06432156	0.12301502
0.61319543	0.57846483	0.12051216
0.09778232	0.30170366	0.09518612
0.10182777	0.81541424	0.10654663
0.12124867	0.05550423	0.6386075
0.1096276	0.57276724	0.62688742
0.61741409	0.32429168	0.62382883
0.63164248	0.83674408	0.62612141
0.62010223	0.06729908	0.12327102
0.61302378	0.58242279	0.11928985
0.10148202	0.29911729	0.09987651
0.10445995	0.81283897	0.10559888
0.11827611	0.05790698	0.63423525
0.10656967	0.57210927	0.63186679
0.61835933	0.3254132	0.62662148
0.62962134	0.83123262	0.63078112
0.61915737	0.06871827	0.12579814
0.61356429	0.58317358	0.11867857
0.1076806	0.29962698	0.10537254
0.10690103	0.8109882	0.1090743
0.11296478	0.062734	0.6291173
0.1042029	0.57263479	0.63697735
0.61382041	0.32380866	0.6314201
0.63040887	0.82627692	0.63682568
0.62355265	0.06806005	0.13119043
0.61723021	0.58039016	0.11800841
0.11528825	0.30172532	0.10925702
0.11094733	0.81134794	0.1130664
0.1096378	0.0676509	0.62452967
0.10452516	0.57271553	0.63859389
0.60851324	0.32098394	0.63605445
0.63397607	0.82371684	0.64236602
0.63280096	0.0668895	0.13809169
0.62440666	0.57603826	0.1197722
0.121486	0.30469564	0.11308365
0.11865585	0.81369245	0.11607234
0.1099519	0.07188829	0.62351193
0.11050877	0.57176278	0.63746391
0.60920352	0.31838577	0.63969149
0.64136	0.82451208	0.64336168
0.64579089	0.06546755	0.14297294
0.63155531	0.57360073	0.12349379
0.1260149	0.30668324	0.11693534
0.12944489	0.81657903	0.11668426
0.11428922	0.07301739	0.62700894
0.12050888	0.5705838	0.63476727
0.61537215	0.3173928	0.64102217
0.64940364	0.82847332	0.63955148
0.65954951	0.06372188	0.14331309
0.63624352	0.57432642	0.1249226
0.12842685	0.3065944	0.12029748
0.13884667	0.819684	0.11503703
0.12068913	0.06999719	0.63384737
0.12984416	0.56934696	0.63064536
0.62508767	0.3193075	0.63719117
0.65232385	0.8322727	0.63308939
0.66910852	0.06104743	0.14269648
0.63665137	0.57562051	0.12603298
0.12789522	0.30625071	0.12298867
0.14422148	0.82197641	0.11428664
0.12586348	0.06480562	0.641821
0.13682046	0.5694109	0.62681427
0.63588664	0.32198864	0.63214086
0.65078181	0.83473012	0.62653035
0.67152645	0.05733516	0.14089369
0.63652712	0.57560796	0.12663287
0.12597569	0.3074423	0.12596062
0.14584837	0.82360654	0.11596784
0.12769115	0.05893362	0.64414314
0.13905573	0.57046477	0.62307717
0.64414512	0.3241403	0.62937472
0.64511784	0.83574083	0.62328862
0.6675401	0.05444269	0.13819057
0.63812913	0.57276243	0.1261222
0.12538705	0.31135464	0.13090777
0.14242003	0.82571759	0.12032636
0.12597453	0.05513938	0.64028179
0.13571148	0.57122241	0.6211243
0.64770704	0.3259515	0.63042503
0.63876688	0.83534438	0.62439684
0.65815963	0.05393558	0.13751655
0.64034631	0.56852385	0.12763055
0.12741252	0.31753765	0.13758663
0.13894526	0.82684617	0.12639816
0.1243685	0.05496874	0.63577149
0.1309136	0.57147763	0.62208919
0.64711505	0.32814135	0.63476236
0.63472502	0.83366704	0.62927673
0.64968395	0.0563347	0.13855287
0.64451782	0.56587588	0.1308363
0.13204603	0.3235101	0.14489488
0.13790486	0.82722119	0.13216709
0.12697268	0.05735755	0.63489029
0.12607752	0.57177273	0.62614327
0.64609456	0.32984444	0.64133967
0.63269603	0.83194558	0.63778956
0.64419439	0.06050211	0.13921488
0.64960628	0.56558457	0.13511447
0.13610489	0.32564708	0.15203457
0.13905065	0.82819549	0.13621802
0.13443946	0.06113189	0.64044446
0.12381925	0.57374198	0.63337449
0.647582	0.32924346	0.64954908
0.63344532	0.8308009	0.64711223
0.64188784	0.06331459	0.14018942
0.65324127	0.56711648	0.1398608
0.13717785	0.32413149	0.1534005
0.14255694	0.83005697	0.13767107
0.14325767	0.06496428	0.64922712
0.12561475	0.57704508	0.64161915
0.65276713	0.32562487	0.65652061
0.63712025	0.82941312	0.65472667
0.64123495	0.06331723	0.13988654
0.6550489	0.56907641	0.13862937
0.13563867	0.32213354	0.14846619
0.14416182	0.83394802	0.13849837
0.14705718	0.06803616	0.656148
0.12997766	0.58059038	0.64452359
0.66148075	0.31944812	0.65915992
0.64207865	0.82849456	0.65687654
0.63916209	0.06090046	0.13584434
0.65471866	0.57099999	0.13135209
0.13514073	0.32143963	0.14414186
0.14408332	0.83913951	0.14115976
0.14371876	0.06951083	0.6567131
0.13554806	0.58252793	0.6432563
0.67002282	0.31228417	0.65795489
0.6475695	0.829165	0.65282603
0.63527269	0.0573401	0.12820274
0.65174993	0.57267281	0.12274976
0.14028784	0.32399762	0.14376983
0.14312444	0.84410004	0.14582998
0.13503544	0.06960391	0.65401605
0.14119191	0.57967271	0.63809701
0.67587662	0.30759782	0.65439266
0.65089564	0.83193783	0.64477523
0.63054557	0.05491487	0.11947283
0.64873707	0.57396674	0.11566596
0.14811972	0.32850805	0.1463403
0.14108879	0.84864693	0.14866008
0.12509638	0.06895087	0.65233544
0.14461093	0.574101	0.63570294
0.67987648	0.30544531	0.6493565
0.65106292	0.83507103	0.6368264
0.62688924	0.0547378	0.1133282
0.6483846	0.57516007	0.11584017
0.15326221	0.33338671	0.14960645
0.1386935	0.85060477	0.14683594
0.12266915	0.06832877	0.65492507
0.14685018	0.57115276	0.64035181
0.68209852	0.30726502	0.64552561
0.64943149	0.83628621	0.63322229
0.62646597	0.05732965	0.11209066
0.65308815	0.57587436	0.12271539
0.15511225	0.33655821	0.15320701
0.13567696	0.84949644	0.14309484
0.1262749	0.06712443	0.66206793
0.14904516	0.57356982	0.64833456
0.68416478	0.3132676	0.64419832
0.64528423	0.83302028	0.63561338
0.62781782	0.06260865	0.11667472
0.66145578	0.57616358	0.13005988
0.15474907	0.33568318	0.15546213
0.13183971	0.84639484	0.14049285
0.13145976	0.06457878	0.66960365
0.15199757	0.57806941	0.65957762
0.68748576	0.31934469	0.64533249
0.63971332	0.82606976	0.64096982
0.63008962	0.06801869	0.12412966
0.6698319	0.57507252	0.13653617
0.15362422	0.33282253	0.15607442
0.12767779	0.84163226	0.139811
0.13605271	0.06124497	0.67422932
0.15776647	0.58162955	0.67171672
0.68807412	0.32289033	0.64938093
0.6344901	0.81825886	0.64347343
0.63292911	0.07012456	0.1276336
0.67757228	0.57301751	0.14080402
0.15337945	0.32861248	0.15676744
0.12273793	0.8381664	0.14031872
0.13869018	0.05998278	0.67261267
0.16507317	0.58076431	0.68170074
0.68514984	0.32122226	0.65461727
0.62923004	0.81238517	0.64174724
0.63665211	0.06780068	0.12359668
0.6842814	0.57183539	0.14117821
0.1537837	0.32428285	0.15631637
0.11924601	0.83693441	0.14199901
0.13943321	0.06169337	0.66374878
0.17213878	0.57564192	0.68826647
0.67998743	0.31340888	0.65696215
0.62707812	0.81061162	0.63699623
0.64072162	0.06312306	0.11612328
0.68787461	0.57328079	0.13958955
0.15341126	0.32227607	0.15276246
0.12097115	0.83644415	0.14229001
0.13982574	0.06570009	0.65222433
0.1777373	0.56969049	0.68930272
0.67200594	0.3039666	0.65146446
0.6307898	0.81183552	0.6350558
0.64306221	0.0606396	0.10890569
0.68803072	0.57822701	0.13704334
0.15109963	0.32186384	0.14544354
0.12540314	0.83743949	0.14173745
0.13969072	0.06809922	0.64164074
0.17698507	0.56468029	0.68457134
0.66347214	0.2961588	0.64030505
0.63748128	0.81493721	0.63785669
0.64441222	0.06211522	0.10785485
0.68299501	0.58464245	0.13608657
0.14944771	0.323427	0.13518441
0.13026608	0.83908073	0.14350993
0.13958474	0.06561754	0.63750231
0.17075455	0.56254307	0.67891788
0.65575973	0.29439812	0.63062599
0.64594527	0.81809921	0.64188453
0.64607921	0.06516652	0.11730751
0.67299233	0.58840921	0.13788448
0.14928067	0.32633023	0.12764122
0.13271242	0.8413105	0.14689964
0.13825884	0.06028815	0.64004996
0.16475167	0.56352909	0.67296333
0.65078	0.29876334	0.62780107
0.64923594	0.81996562	0.6433158
0.65036787	0.06724044	0.12859828
0.66338286	0.58634382	0.13985399
0.15157168	0.32753046	0.12998101
0.13133412	0.8448631	0.15193741
0.13505656	0.05486557	0.64227253
0.15980478	0.56705566	0.66954983
0.65093084	0.30468187	0.6324285
0.64638057	0.82018849	0.64030254
0.66135701	0.0679806	0.1357864
0.65661304	0.58005486	0.14094779
0.15710686	0.32812808	0.13833607
0.12871672	0.8468775	0.15492173
0.13240893	0.05204874	0.6392739
0.15555959	0.57108898	0.66789155
0.65004506	0.30890243	0.63860374
0.6408994	0.81975591	0.63532362
0.67158647	0.06752803	0.13556512
0.6552808	0.57277907	0.14035369
0.16272886	0.32685468	0.14602526
0.12639898	0.84611713	0.15192966
0.13166888	0.05271771	0.62752912
0.15039617	0.57080612	0.66214103
0.64340331	0.30970607	0.64108178
0.63326368	0.81903873	0.63078057
0.67541673	0.06705107	0.12938882
0.65843218	0.56894801	0.13839606
0.16743804	0.32273786	0.14819798
0.12598044	0.8424394	0.1447496
0.13352127	0.05492182	0.61301125
0.14166759	0.56776612	0.6539629
0.63425437	0.30882699	0.63631983
0.62627776	0.81819078	0.62714289
0.67151862	0.06659253	0.12121529
0.66126985	0.56973649	0.14340555
0.17103631	0.31912346	0.14550218
0.12556857	0.83567565	0.13560601
0.1361345	0.05687934	0.60355862
0.13246018	0.56586965	0.64710587
0.62655719	0.30761114	0.62777285
0.62041615	0.81924397	0.6256231
0.66136389	0.06492535	0.11239962
0.65918975	0.57308766	0.14909564
0.16920545	0.31658106	0.14196933
0.12175223	0.82994309	0.13016021
0.1364489	0.0572753	0.60386733
0.12507867	0.56649011	0.64270748
0.62423559	0.30685733	0.62096927
0.61692231	0.82155412	0.62375577
0.65216912	0.06184765	0.10555635
0.65137298	0.57641694	0.15422392
0.16205067	0.31540222	0.13877658
0.11820122	0.82748619	0.13151948
0.13305826	0.05647521	0.61237682
0.1220493	0.56906287	0.6407572
0.62817182	0.30640349	0.61961376
0.6198413	0.82398813	0.62042854
0.64930525	0.05810128	0.10247741
0.64364099	0.57885262	0.15445227
0.1516956	0.3162791	0.13984742
0.11514035	0.82714495	0.13078455
0.12677236	0.05565243	0.62036863
0.12555141	0.57115601	0.63980942
0.63188829	0.30635919	0.62441882
0.62526231	0.82610226	0.61775637
0.64921736	0.05519998	0.1012449
0.63794853	0.57972232	0.14578318
0.14120704	0.31797798	0.14264059
0.11310378	0.82823448	0.12539897
0.12143703	0.05434266	0.62330436
0.13091976	0.57109899	0.64138757
0.63200351	0.30807323	0.63263472
0.63126772	0.82681582	0.61750617
0.64915411	0.05427533	0.10394246
0.63481943	0.5792225	0.13281092
0.13399966	0.31938289	0.1409814
0.11375704	0.82763854	0.11543635
0.11979095	0.05275605	0.62404458
0.13377621	0.56971108	0.6436217
0.62966445	0.31218339	0.64309784
0.63755199	0.82753256	0.62059191
0.64790357	0.05580424	0.11037735
0.63198021	0.57811194	0.11977434
0.12967625	0.32021332	0.13433306
0.11498906	0.82402881	0.10330324
0.12102008	0.052648	0.62609465
0.12973703	0.5683425	0.64515616
0.62578148	0.31736505	0.65226948
0.64031005	0.82916672	0.62623209
0.64610154	0.05920065	0.11841891
0.62717103	0.57675472	0.1132239
0.12759306	0.31907632	0.12469465
0.1173138	0.82008736	0.09712818
0.12399319	0.05329952	0.62799007
0.11915625	0.56832837	0.64422416
0.62463932	0.32238056	0.65729437
0.64212486	0.83001746	0.63194796
0.64698341	0.063207	0.1261754
0.62134094	0.57545546	0.11289427
0.12757467	0.31609218	0.1166249
0.1209542	0.81737241	0.09802638
0.12646525	0.05478965	0.63093425
0.10948792	0.56956537	0.64175921
0.62746838	0.32511203	0.65895319
0.6434006	0.8303981	0.63644328
0.6498097	0.06582926	0.12902766
0.61882503	0.57436555	0.11396524
0.1247277	0.31243622	0.11401213
0.1258148	0.81779397	0.10300555
0.12775049	0.05666083	0.63513668
0.10633853	0.57110508	0.63896514
0.63325946	0.32470249	0.65827903
0.64267393	0.82990428	0.63770694
0.6525233	0.06604332	0.12592183
0.62041736	0.57333183	0.11562428
0.12089028	0.30916582	0.1151728
0.13270224	0.82178219	0.11041407
0.1281585	0.05709362	0.63914075
0.10899683	0.5721336	0.63627294
0.6396385	0.32108228	0.65588233
0.64244695	0.8286893	0.63489433
0.65193064	0.0646952	0.11911953
0.62422342	0.57276633	0.11794642
0.12004005	0.30745642	0.11644561
0.13786109	0.82599049	0.11555204
0.12844469	0.05893158	0.6424567
0.11189855	0.57153529	0.63302681
0.64320909	0.31598889	0.65132392
0.64177808	0.82822819	0.63073154
0.64572531	0.06265447	0.11306042
0.62702324	0.5739288	0.11909921
0.12205509	0.30777472	0.11593376
0.13940095	0.82894596	0.11743997
0.1289998	0.06236135	0.64520703
0.11229354	0.57029868	0.62454738
0.644855	0.31296663	0.64394307
0.64049579	0.8287801	0.62927289
0.6370361	0.06161757	0.11365314
0.62641929	0.5765295	0.12227817
0.12505716	0.31025871	0.11364409
0.13834218	0.82977622	0.11760941
0.12957243	0.06447087	0.6475197
0.1122211	0.57034075	0.6134517
0.64526209	0.31340002	0.63643137
0.64007927	0.83096722	0.63288932
0.62942967	0.06235553	0.12104383
0.62497601	0.57982262	0.12257366
0.12617946	0.31433235	0.11177038
0.13579626	0.82829571	0.11672453
0.1303629	0.06528317	0.65018693
0.11412689	0.57150286	0.60491254
0.64467134	0.31629053	0.63063498
0.63832275	0.83417072	0.63936865
0.62661923	0.06399333	0.13133668
0.62413215	0.58217023	0.11931471
0.1228284	0.31850065	0.11286937
0.13366071	0.82760483	0.11733391
0.13086796	0.06454292	0.65253835
0.11833453	0.57344019	0.60295225
0.6441652	0.32017648	0.62708036
0.63469913	0.83695544	0.64267789
0.63006711	0.06580322	0.1429187
0.62587206	0.58095315	0.1165242
0.1159033	0.32124358	0.11754392
0.13452333	0.82905488	0.1194493
0.12983503	0.06272891	0.65109654
0.12326515	0.5755042	0.60651303
0.64332645	0.32290346	0.62710769
0.63173794	0.83918973	0.64217393
0.63569355	0.06628978	0.15103519
0.62986027	0.57589907	0.11222283
0.10854886	0.32232846	0.12462539
0.1362506	0.83121717	0.12066966
0.12902363	0.0625993	0.64486145
0.12536664	0.5764377	0.61210488
0.64238187	0.32527474	0.62822066
0.62921193	0.83989674	0.64191144
0.64130654	0.06541233	0.15491433
0.63336916	0.57026998	0.10835122
0.10297958	0.32241934	0.12769617
0.13352773	0.83284833	0.12193057
0.12930596	0.06462478	0.63776399
0.12382226	0.57604691	0.61545452
0.64177229	0.32734995	0.6275623
0.62920352	0.83861617	0.64370889
0.64463375	0.0648531	0.15559782
0.63472783	0.56714454	0.10543275
0.10156985	0.32142624	0.12363284
0.12862571	0.83255218	0.12147808
0.13076715	0.06867509	0.63475478
0.12004596	0.57419216	0.61225465
0.64113039	0.32866644	0.62593638
0.63152824	0.83671333	0.64791599
0.6422409	0.06523318	0.1518989
0.63316654	0.5687958	0.10291474
0.103429	0.32080723	0.11706232
0.12394712	0.83120796	0.11872782
0.13321722	0.07310421	0.63847098
0.11426506	0.57410311	0.60745982
0.63998119	0.32970885	0.62359657
0.63248743	0.83531293	0.65040045
0.63404556	0.06620206	0.14678049
0.62965791	0.57419973	0.10464327
0.10478816	0.32198179	0.11273994
0.11977484	0.83062753	0.11823109
0.13469913	0.07489627	0.64403973
0.10972596	0.5779881	0.60383431
0.63702135	0.32981519	0.62070295
0.63246188	0.835519	0.64971273
0.62665739	0.06625095	0.14096188
0.62671279	0.57971829	0.11171416
0.10513504	0.32395302	0.11636301
0.11652181	0.83093951	0.11864919
0.13271613	0.07433452	0.64721298
0.110063	0.58198066	0.60513572
0.63299779	0.32940256	0.61939888
0.63161951	0.83673358	0.64617441
0.62277592	0.06468935	0.1351818
0.62458968	0.58169756	0.11975906
0.10577828	0.32556598	0.12615827
0.11468119	0.83136955	0.11959665
0.12899686	0.07280804	0.64622847
0.11669993	0.58632238	0.61232973
0.62924422	0.32870293	0.62176175
0.63155098	0.83735908	0.63933887
0.61767071	0.06282771	0.13331806
0.62225252	0.58104323	0.12603164
0.10693944	0.32484624	0.1326398
0.11413793	0.82996599	0.11957845
0.12458567	0.070918	0.63772686
0.12481855	0.58992935	0.62065659
0.62607297	0.32728922	0.6261621
0.63370046	0.83746409	0.63199494
0.60963868	0.06188823	0.13621916
0.62111412	0.57866882	0.12300422
0.10803146	0.32001727	0.12700864
0.11449905	0.82678044	0.11795135
0.11930783	0.07042861	0.62788551
0.12721716	0.5900976	0.62725127
0.62284115	0.32653285	0.62948551
0.63648434	0.83748539	0.63005903
0.59882169	0.06266101	0.14249949
0.62026176	0.57688985	0.11593494
0.10807505	0.31446569	0.11346317
0.11547296	0.82413999	0.11721394
0.11387668	0.07089205	0.62092295
0.12569847	0.58969747	0.63044429
0.61812419	0.3272993	0.6314802
0.64097792	0.83863111	0.63518219
0.58891451	0.06546561	0.14632452
0.62138201	0.57629514	0.11247835
0.10738379	0.31346106	0.09981575
0.11430073	0.82376597	0.11647613
0.10784259	0.07093239	0.619681
0.12313797	0.58957442	0.63329163
0.61171545	0.32895115	0.63441023
0.64596688	0.84164497	0.64438237
0.58306653	0.0692603	0.13920581
0.62626506	0.57484054	0.11315897
0.10671221	0.31717326	0.08859151
0.10939273	0.82644339	0.11810211
0.10223602	0.07100157	0.62197637
0.12500212	0.58928641	0.63821059
0.60488609	0.3308914	0.63936657
0.6498505	0.8441133	0.65469446
0.58328656	0.07111155	0.1301214
0.63291128	0.57237416	0.11619668
0.10687544	0.32251976	0.08596167
0.10114282	0.83135096	0.12505881
0.10049892	0.0716019	0.62460375
0.13104887	0.58947549	0.64387094
0.59981437	0.33232305	0.64478918
0.65337975	0.84537224	0.66084471
0.59045435	0.0689817	0.12407335
0.63881386	0.56893116	0.12016857
0.10802447	0.32548086	0.09062276
0.0955163	0.83492905	0.13357871
0.10315692	0.07379935	0.62844799
0.13510977	0.58816591	0.64853203
0.5982269	0.3327003	0.64822073
0.65401925	0.84511281	0.65927451
0.60098063	0.0636154	0.12006278
0.63977653	0.56573775	0.12427307
0.10935951	0.32500076	0.09887995
0.09681065	0.83598588	0.14042136
0.10886994	0.07783463	0.63400113
0.13442098	0.58538429	0.65179302
0.60014971	0.3319158	0.64788516
0.65012382	0.84374623	0.65243264
0.61023618	0.0576855	0.11842422
0.63545769	0.56499386	0.12922953
0.11033109	0.3224972	0.10599101
0.10712241	0.8337221	0.1426781
0.11190681	0.08027276	0.63912171
0.12898564	0.58259385	0.65298871
0.60500514	0.33006964	0.64491283
0.64501946	0.8426135	0.64362724
0.61684806	0.05427174	0.11390603
0.62901737	0.56815246	0.13603231
0.10969561	0.31836825	0.109688
0.11953544	0.8298063	0.13933551
0.10755221	0.07859507	0.64018472
0.12049293	0.57945743	0.64730858
0.61012817	0.32803064	0.64071119
0.63933264	0.84174956	0.63757877
0.62037659	0.05437881	0.10531261
0.62348258	0.57332794	0.142536
0.10652515	0.31395578	0.11060363
0.12740422	0.82699837	0.13380996
0.10066951	0.07526411	0.63800171
0.11612111	0.57573312	0.63499383
0.61307936	0.32764647	0.63832451
0.6358637	0.84165706	0.63554234
0.62167349	0.0561705	0.09683883
0.62234407	0.57762986	0.14679179
0.10312947	0.31168909	0.11022236
0.13092879	0.8267934	0.13040527
0.09279904	0.07245942	0.63304378
0.11822889	0.57258417	0.62223972
0.61484156	0.32787992	0.63963616
0.63638804	0.84191707	0.63620874
0.62349555	0.05827162	0.09026926
0.62563452	0.57969781	0.1457778
0.10125701	0.31338609	0.1109892
0.13265279	0.82939728	0.13124555
0.08747949	0.07149744	0.62696069
0.12217685	0.57112732	0.61761907
0.61665715	0.32710739	0.64426192
0.63872756	0.84047154	0.64123588
0.6264307	0.05935385	0.08661803
0.6292607	0.5794479	0.14092177
0.10370072	0.31829966	0.11645978
0.13316967	0.83380163	0.13782093
0.09016564	0.071712	0.62257025
0.12476847	0.57344864	0.62222451
0.61959482	0.32543144	0.65072961
0.64418763	0.83818655	0.64756405
0.63009942	0.06008505	0.0873687
0.63313674	0.57770476	0.13464464
0.11068313	0.32409975	0.12404336
0.13438255	0.83742481	0.14666293
0.10093664	0.07113384	0.62146222
0.1227092	0.57820709	0.63192666
0.62310883	0.32257749	0.65565817
0.65133828	0.83583137	0.65342342
0.6322538	0.06101862	0.09342748
0.63552515	0.57529607	0.13071255
0.11843163	0.32854414	0.12986287
0.13619246	0.8392891	0.15135607
0.11504485	0.06955225	0.62287245
0.11794467	0.57901807	0.64032743
0.62753	0.31928512	0.65445796
0.65467389	0.83309116	0.65811121
0.63031795	0.06204225	0.10343639
0.63378839	0.57283676	0.13100124
0.12353521	0.33024409	0.13281437
0.13786405	0.83850984	0.15032772
0.13078812	0.06635171	0.6257453
0.11397773	0.57748481	0.64419351
0.63294226	0.31624584	0.64811463
0.6517867	0.83129826	0.65830493
0.62995785	0.06314483	0.11711122
0.63205196	0.57102686	0.13538148
0.12316646	0.32941621	0.13456746
0.13935146	0.83638162	0.14254982
0.14488076	0.06195646	0.62808393
0.11084094	0.57543456	0.64422703
0.63875164	0.31381593	0.64033244
0.64061326	0.83026571	0.65421822
0.63474073	0.06345297	0.13362002
0.63274098	0.56957065	0.13995153
0.11940376	0.32661051	0.13745331
0.1401982	0.83453738	0.13302595
0.15440129	0.05785114	0.62989257
0.109236	0.5737571	0.64196768
0.64348638	0.3121241	0.6342145
0.62972616	0.82836449	0.6474712
0.64212991	0.06293972	0.14878086
0.63562666	0.56898119	0.14188148
0.11797519	0.32329424	0.14142711
0.14068909	0.83240116	0.12891978
0.15666214	0.05444882	0.63311973
0.10928423	0.5730504	0.64004617
0.64587497	0.31164348	0.63191414
0.6265457	0.82571069	0.64222453
0.65182708	0.06277831	0.1575285
0.63954913	0.57000884	0.14145615
0.12079804	0.32134397	0.14385304
0.14040022	0.83080455	0.12704345
0.15194312	0.05215775	0.63714651
0.10870405	0.57176607	0.64025831
0.64496895	0.31193335	0.63220993
0.62955748	0.82256952	0.64170403
0.66015235	0.06351598	0.15530259
0.64279837	0.5715322	0.14012465
0.12793586	0.32077786	0.14217347
0.13804592	0.82927438	0.12644056
0.14554864	0.05193135	0.6408793
0.10824877	0.57005746	0.64218447
0.6436448	0.31229882	0.63279497
0.63659525	0.82042526	0.64401951
0.66441314	0.06532956	0.14333798
0.64408612	0.57356951	0.13895858
0.13712279	0.32068844	0.13563398
0.13544776	0.82666409	0.12672737
0.14111102	0.05331021	0.64361373
0.11024014	0.56878935	0.64588415
0.64382321	0.31206959	0.63392355
0.64387864	0.82028115	0.64741741
0.66482488	0.06755984	0.12971168
0.64460819	0.57598233	0.13871142
0.14574756	0.32072856	0.12837201
0.1332455	0.82388724	0.12746861
0.13903503	0.05589416	0.64453367
0.11586946	0.56706947	0.65006677
0.64839193	0.310356	0.63513121
0.64607034	0.82000656	0.65061436
0.65920818	0.06847113	0.1238118
0.64456386	0.57752432	0.13560229
0.15084886	0.32012211	0.12531535
0.13081986	0.8219655	0.13027337
0.13892534	0.05829897	0.6444882
0.12360863	0.56517539	0.65295285
0.65649429	0.3081132	0.63682669
0.64273981	0.81901067	0.65157582
0.65146539	0.06817971	0.12962984
0.6442283	0.57760838	0.12780755
0.15033808	0.31898384	0.1263581
0.12964618	0.82171007	0.13480656
0.13759543	0.05885196	0.64413362
0.13052521	0.56318838	0.6558418
0.66260375	0.30682934	0.63997687
0.63580347	0.81753365	0.64926948
0.6465415	0.06579683	0.13994274
0.64517109	0.57650633	0.11887174
0.14677986	0.31726543	0.13116865
0.12803479	0.82359841	0.13986916
0.13361643	0.05822276	0.64387759
0.13536775	0.5609706	0.65719397
0.66460308	0.30727793	0.64282249
0.62780626	0.81581283	0.64427318
0.64653612	0.06177384	0.14446007
0.64649583	0.5751683	0.10989428
0.14469025	0.31488221	0.13618974
0.12442204	0.82601055	0.14387914
0.13130418	0.05628752	0.64395269
0.13748622	0.55999857	0.65606149
0.66400466	0.3103455	0.64372312
0.62455469	0.81534781	0.63676843
0.65262648	0.05832117	0.13917906
0.64653831	0.57462961	0.10411469
0.14582335	0.31180083	0.13920972
0.12104501	0.82753122	0.14321183
0.13108149	0.05442926	0.64335278
0.13808855	0.56036482	0.65312182
0.66204764	0.31464706	0.64187525
0.62748779	0.81606209	0.62895388
0.66036999	0.05717729	0.12863358
0.64737731	0.57414493	0.10463993
0.14949045	0.30831483	0.14131574
0.11772934	0.82722012	0.1381872
0.13338432	0.05346296	0.64266051
0.13903614	0.56114943	0.64878701
0.66000935	0.31707766	0.63824188
0.63394761	0.81747021	0.62157349
0.6647083	0.05838563	0.11929176
0.64984267	0.57289888	0.11209834
0.15313675	0.3059559	0.14145298
0.11603657	0.82503182	0.13185986
0.13811142	0.05330013	0.64444118
0.1412735	0.56339948	0.64388943
0.65671695	0.31738363	0.63597404
0.64223119	0.81970834	0.61536371
0.66578454	0.06105122	0.11452165
0.65470245	0.57088999	0.12368479
0.15409256	0.30581329	0.14181372
0.11558728	0.82281128	0.12735698
0.14251411	0.05503658	0.64993
0.14485989	0.56623865	0.640763
0.65139001	0.31496944	0.63888288
0.64903048	0.82200674	0.61177553
0.66408165	0.06318358	0.11624332
0.66069616	0.56848657	0.13258203
0.15121385	0.307717	0.14417589
0.11466438	0.82169178	0.13016178
0.14460603	0.05690491	0.65766062
0.14889232	0.56940144	0.64094211
0.64629504	0.31065087	0.64540992
0.65415821	0.82404439	0.60893772
0.66189417	0.06330044	0.12033986
0.66105559	0.56725923	0.13551683
0.14709557	0.31110238	0.14656261
0.11503472	0.82308108	0.13597845
0.14285584	0.05733352	0.66295042
0.15297068	0.57302453	0.64465762
0.64195376	0.30713426	0.65137258
0.65726674	0.82529428	0.60937966
0.66056113	0.06168037	0.12086151
0.65672757	0.56801295	0.13296744
0.1481082	0.31481503	0.1500263
0.11659139	0.82699792	0.13717566
0.13747307	0.05712067	0.65981799
0.15565549	0.57539789	0.65055769
0.64119211	0.30571934	0.65288922
0.65892336	0.82486961	0.61200572
0.65713721	0.0602458	0.11869406
0.65077499	0.57070801	0.1288507
0.15505162	0.31782986	0.15282403
0.11964907	0.83141608	0.13135732
0.13189204	0.0567798	0.6529187
0.15767726	0.57718343	0.6557157
0.64370722	0.30827007	0.6499365
0.65996516	0.82418765	0.61363243
0.65000607	0.0595583	0.11487
0.64707787	0.5750444	0.12404948
0.16218401	0.3202177	0.15310421
0.12439382	0.83294944	0.11905023
0.1271079	0.05741103	0.64799954
0.1598117	0.57805011	0.65718026
0.64557909	0.31387041	0.64731437
0.65980893	0.82506567	0.61710534
0.64050419	0.06059605	0.11138004
0.64960111	0.57904507	0.12132916
0.1632485	0.32239095	0.15214192
0.12828043	0.8300283	0.10404601
0.12338144	0.06038524	0.64657256
0.16042307	0.57751741	0.65006747
0.64683592	0.32002017	0.64743336
0.65846703	0.82780271	0.62250764
0.63108741	0.06348003	0.11103183
0.65478589	0.58021957	0.123758
0.15589753	0.32523432	0.14936974
0.12914317	0.82615451	0.09271116
0.12065131	0.06359281	0.64920766
0.15989386	0.57662809	0.63681387
0.64626575	0.32484245	0.65098612
0.65396314	0.83187669	0.62671626
0.62752917	0.06546317	0.11531665
0.65860008	0.5786268	0.12822335
0.14328312	0.32891595	0.14608597
0.12808967	0.82475238	0.08702949
0.11860519	0.06663336	0.65116106
0.15772621	0.57568923	0.62452143
0.64569969	0.32462132	0.65388903
0.64606078	0.83581948	0.63227108
0.63169699	0.06630456	0.12462924
0.66135098	0.57545513	0.13315597
0.13483762	0.33213203	0.14390493
0.12495983	0.8273911	0.087436
0.11759797	0.06969593	0.64924015
0.15380726	0.57500198	0.61992564
0.6471814	0.32157075	0.6531342
0.63745542	0.83795861	0.63782257
0.6381789	0.06663736	0.13053332
0.66038658	0.5723222	0.1363554
0.13259563	0.33400197	0.13949469
0.12166289	0.83139112	0.09382906
0.11668389	0.07172642	0.64407211
0.14681824	0.57551029	0.62435867
0.64754401	0.31936924	0.64803315
0.63185026	0.83780218	0.64075778
0.64419004	0.06764644	0.12802977
0.6561218	0.57045845	0.13556175
0.13448524	0.33225934	0.13413286
0.12019529	0.83385539	0.10336493
0.1155671	0.07463042	0.6373529
0.13773578	0.57759328	0.63361536
0.6477336	0.31957366	0.63974953
0.63166196	0.83742983	0.63975005
0.64405054	0.07105799	0.12362421
0.65122634	0.5708631	0.1334086
0.13665313	0.32713648	0.12967725
0.12039289	0.83422384	0.11259677
0.11805083	0.07809082	0.63054321
0.13161321	0.58092928	0.64204059
0.64962493	0.32242329	0.63361321
0.6351837	0.83900729	0.63355505
0.63720171	0.07477092	0.12056013
0.64609114	0.57486883	0.13122397
0.13755236	0.32407964	0.12666966
0.12304786	0.83382818	0.11951276
0.11968342	0.07934727	0.62599195
0.12821846	0.58466942	0.64591441
0.65166598	0.3264025	0.63424985
0.63858992	0.84096934	0.62697213
0.62785386	0.07701858	0.12338259
0.64478725	0.57962867	0.12754179
0.13782363	0.32623045	0.12837986
0.12662811	0.8341581	0.12223926
0.11764487	0.07905457	0.62436392
0.1256178	0.58715883	0.64429219
0.65326579	0.32993016	0.64001858
0.64076965	0.84264561	0.62479461
0.61959083	0.07660444	0.13274776
0.64747885	0.58244695	0.12257877
0.13547817	0.33124559	0.13146837
0.12662514	0.83627678	0.1195004
0.11277144	0.07563796	0.62485498
0.12326063	0.58701122	0.63727029
0.65380539	0.33230198	0.64505903
0.64093902	0.84317868	0.62772201
0.61576484	0.07275947	0.13778366
0.65146339	0.58441272	0.11792094
0.12738872	0.33432019	0.13343239
0.12579166	0.83961063	0.11322254
0.10695143	0.07046424	0.62727862
0.12051261	0.58392761	0.62890794
0.65299186	0.33283579	0.64528848
0.63910752	0.8393406	0.63329464
0.616085	0.06820511	0.13257274
0.65520091	0.58619192	0.11382288
0.11663929	0.33330746	0.13291323
0.12597124	0.84359432	0.10680565
0.10625634	0.06794352	0.63038093
0.11818677	0.57984038	0.62073047
0.65241964	0.33322175	0.63862153
0.63588178	0.83407371	0.6402871
0.61608041	0.06522004	0.12256956
0.65504177	0.58789406	0.11277345
0.10894774	0.33059231	0.12755591
0.12613784	0.84746894	0.10416523
0.11095752	0.06726472	0.63185604
0.11742518	0.57714801	0.6132481
0.65056461	0.3334617	0.62788172
0.63007961	0.83167644	0.64570168
0.61472811	0.06461771	0.11167205
0.64839239	0.58935446	0.11345165
0.10854782	0.32796458	0.12147738
0.12926673	0.85032468	0.10494838
0.11831664	0.06898721	0.63169727
0.11830795	0.57748178	0.60824109
0.6463287	0.33098649	0.61885126
0.62317946	0.8320835	0.64669384
0.61540279	0.06733404	0.10472627
0.63905736	0.58874581	0.11399807
0.11340922	0.32612365	0.11679458
0.13198041	0.8512689	0.11137528
0.12599026	0.07235024	0.63052529
0.12056389	0.57974248	0.60694928
0.64041251	0.32695099	0.61689245
0.61905962	0.83447615	0.64280426
0.61931853	0.07077992	0.10493758
0.6329885	0.58573407	0.11463328
0.11707881	0.32548414	0.11249337
0.13166945	0.85046422	0.12066109
0.13069198	0.07293792	0.62809348
0.12199234	0.58161895	0.61090917
0.63238094	0.32220954	0.62253037
0.62023381	0.83718014	0.63704478
0.6289116	0.07232748	0.1105232
0.63134373	0.5815224	0.11525715
0.11755619	0.32578432	0.11229606
0.1305729	0.84636466	0.13116073
0.13265767	0.07016675	0.62554948
0.12154481	0.58229801	0.61890678
0.62498141	0.31803946	0.62899363
0.62639233	0.83840432	0.6328491
0.6405169	0.07177643	0.11857247
0.63251992	0.57754641	0.11691848
0.1168106	0.32557895	0.11451497
0.13058391	0.83996817	0.14103931
0.13410709	0.06543685	0.62217539
0.12083989	0.58139561	0.62913287
0.61974699	0.31680796	0.63296493
0.63445443	0.83714198	0.63205226
0.64678352	0.0699334	0.12440272
0.63133441	0.57610438	0.11908055
0.11691109	0.32453073	0.1157046
0.13301179	0.83372147	0.14547518
0.13462334	0.06137825	0.6184798
0.12105051	0.57928774	0.63921607
0.61699102	0.31788883	0.63480132
0.63936204	0.83365691	0.63317338
0.64524693	0.06839368	0.12577984
0.62806014	0.57706625	0.12060609
0.12144271	0.32309938	0.11631244
0.13523026	0.82921611	0.14485589
0.13411211	0.06061926	0.61750762
0.12313331	0.57726523	0.64767295
0.61935617	0.31973049	0.63574203
0.63794256	0.83009927	0.63383592
0.63864179	0.06753631	0.12339734
0.62488632	0.57921282	0.12361783
0.12629252	0.32240207	0.11430999
0.13525061	0.82888614	0.14246387
0.13164171	0.06172313	0.61821083
0.12603488	0.57532704	0.65098011
0.62469432	0.32081829	0.63802724
0.630354	0.82874112	0.63307986
0.63263977	0.06639554	0.11866428
0.6240022	0.58140765	0.12753495
0.12622331	0.32333647	0.10993813
0.13454798	0.8301195	0.1383985
0.12592025	0.06372845	0.62042596
0.12384281	0.57302468	0.64829035
0.62846766	0.32033929	0.64206847
0.62116222	0.82962407	0.63306752
0.6310109	0.06510886	0.11466012
0.62622698	0.58174219	0.13217
0.12207842	0.32425075	0.1052333
0.13239267	0.82905893	0.13351319
0.12107588	0.06507203	0.62372005
0.11621045	0.57084738	0.64044032
0.6297247	0.3188562	0.64434938
0.61919091	0.83174948	0.63602237
0.63328592	0.06332422	0.11253401
0.62791944	0.57901444	0.13761693
0.11551707	0.32257841	0.10013616
0.12825469	0.82515297	0.12837494
0.11881677	0.06503398	0.62612715
0.10875187	0.5688627	0.63066568
0.62738552	0.31603243	0.64430699
0.6276764	0.83378165	0.64308076
0.63682825	0.06115259	0.11252838
0.62848391	0.57476483	0.13988045
0.11017513	0.31904766	0.09691713
0.12325945	0.81847532	0.1238701
0.12134782	0.06415362	0.62883819
0.10500261	0.56797661	0.62662143
0.62359641	0.31371552	0.64118522
0.64051003	0.83401643	0.65191324
0.63947093	0.06124224	0.11592555
0.62824684	0.57074011	0.13782618
0.11092979	0.31520798	0.0971697
0.11857054	0.81409739	0.120593
0.12699688	0.06255715	0.63220242
0.10849915	0.57022429	0.63007049
0.61913141	0.31372678	0.63468682
0.6548778	0.83277318	0.65527786
0.63961741	0.06321313	0.12176717
0.626457	0.56861196	0.1322933
0.11633046	0.3119901	0.10315374
0.11418011	0.8142054	0.11803312
0.12919888	0.06126734	0.63532634
0.11698023	0.57410597	0.63588163
0.6140209	0.31548669	0.62857593
0.66609735	0.83049826	0.65149151
0.63777192	0.0657148	0.12912056
0.62356935	0.56886803	0.12664167
0.12533618	0.30982941	0.11597091
0.10931212	0.81728191	0.11816264
0.12669299	0.06101637	0.6383254
0.12270049	0.57719423	0.64045412
0.61207657	0.31833421	0.62424826
0.67094831	0.8283977	0.6434594
0.63675179	0.06766405	0.13685764
0.61913994	0.56943956	0.12447023
0.13532533	0.30810341	0.13071373
0.10442171	0.82177475	0.11969715
0.12163616	0.06044424	0.63827482
0.12211857	0.57797269	0.64150914
0.61550286	0.3209973	0.62531386
0.66964089	0.82777068	0.63681721
0.6374312	0.06630799	0.14342345
0.61541338	0.56976125	0.12494886
0.14063075	0.30489584	0.1408273
0.10275828	0.82509338	0.11864535
0.11768955	0.05809283	0.63550801
0.1163116	0.57593515	0.64120734
0.62365738	0.32205106	0.63290015
0.66131035	0.82853249	0.63590939
0.64019496	0.06247139	0.14643
0.61326727	0.56987718	0.12536137
0.14128149	0.30104424	0.14378869
0.10724966	0.82501728	0.11576507
0.12059384	0.05389123	0.63360009
0.11025849	0.57351241	0.6426532
0.63496392	0.32249013	0.64199502
0.65027198	0.82969044	0.64001164
0.64264091	0.05961091	0.14550358
0.61260522	0.56974765	0.1244117
0.13706921	0.2989623	0.13669885
0.11496164	0.82339221	0.11106802
0.12742469	0.04944141	0.63326384
0.10843431	0.57101446	0.64396031
0.64576313	0.32314637	0.64939577
0.64118225	0.82976056	0.64605889
0.64266575	0.05854711	0.1429337
0.61371138	0.5709943	0.12008887
0.12882551	0.2992823	0.1264237
0.12415373	0.82215915	0.11023658
0.13028094	0.04754329	0.63612709
0.11093235	0.56860336	0.64211515
0.65299969	0.32409807	0.65089097
0.63684153	0.82845	0.6504723
0.64099105	0.05955029	0.14063085
0.61502137	0.57278367	0.11846153
0.12007834	0.30204119	0.12261196
0.13189923	0.82193381	0.11798057
0.12569262	0.05035992	0.64225288
0.11606416	0.5669146	0.63613728
0.65576921	0.32516278	0.64740475
0.64353104	0.82695079	0.65168067
0.63881128	0.06059667	0.13823356
0.61703414	0.57297607	0.12460379
0.11069908	0.30587399	0.12718803
0.13646901	0.82242744	0.12770112
0.11689955	0.05700385	0.64658539
0.12096826	0.56556818	0.6260991
0.65024594	0.32580607	0.64532619
0.65266768	0.82571258	0.64982883
0.64074879	0.06070838	0.13683543
0.62115638	0.57213429	0.13273433
0.10587549	0.30895177	0.13590281
0.13667821	0.82247144	0.13700569
0.10871623	0.06414279	0.64699661
0.12431714	0.56533331	0.61650143
0.64147817	0.32474546	0.64379475
0.65683703	0.8258986	0.64808557
0.64634445	0.06038579	0.1386428
0.62457866	0.57178636	0.13629029
0.10862698	0.31050945	0.14477969
0.13073608	0.82188786	0.1434017
0.10648931	0.06908778	0.64425154
0.12596255	0.5676974	0.61160236
0.6342269	0.32189777	0.64106762
0.65517801	0.82668291	0.64875889
0.6510236	0.05889313	0.14305174
0.62877721	0.57372188	0.13351438
0.11307256	0.31104163	0.14563261
0.12596348	0.82173944	0.1443191
0.1111631	0.07143851	0.64201194
0.12612053	0.57199162	0.61538546
0.62910978	0.31823413	0.63581076
0.64589238	0.82621877	0.65240472
0.65251483	0.05686472	0.14916313
0.63487859	0.57657891	0.12734886
0.11902716	0.31227383	0.14020714
0.12620238	0.82201597	0.14230574
0.1215476	0.07244676	0.64739946
0.12583917	0.57630246	0.62280016
0.62537013	0.3162507	0.62777278
0.63752088	0.82557163	0.6553334
0.65079503	0.056246	0.15627911
0.64161739	0.57763179	0.11953612
0.12583732	0.31494725	0.13305939
0.12802853	0.82336027	0.13870557
0.13241228	0.0726612	0.65732021
0.12736935	0.57838355	0.62990887
0.62389834	0.31735073	0.62546199
0.63215925	0.82575699	0.65308592
0.64833398	0.05662915	0.16103499
0.64777736	0.57720901	0.11031229
0.1304008	0.3187129	0.12730016
0.13058892	0.82531642	0.13331377
0.14004923	0.07171238	0.6681843
0.13028341	0.577687	0.63620609
0.62771742	0.31820116	0.63219298
0.62746443	0.82603689	0.64663764
0.64597742	0.05768519	0.16081005
0.65042577	0.57535437	0.10259148
0.13287546	0.32258632	0.12668137
0.13285358	0.82502376	0.12883668
0.14281871	0.06983795	0.67900061
0.13298052	0.57589861	0.64142572
0.6376855	0.31834585	0.64405828
0.62447466	0.82636024	0.63931397
0.64394034	0.05878857	0.15779341
0.64976892	0.57330294	0.10006618
0.12894039	0.32566874	0.12850953
0.13578654	0.82335749	0.12670033
0.14115949	0.06736343	0.68683735
0.13456573	0.57388082	0.64486279
0.64858109	0.31701053	0.65719079
0.62378077	0.82701103	0.63546786
0.64321309	0.0582705	0.15243013
0.64928454	0.57232793	0.10325896
0.12058927	0.32632471	0.12940423
0.13963485	0.82279173	0.12664058
0.13740086	0.06459948	0.69039086
0.13523523	0.57335567	0.64724033
0.65565236	0.31405256	0.66672506
0.6239435	0.82808193	0.63856394
0.64244887	0.0588703	0.14509441
0.64906982	0.57124408	0.11268005
0.1151862	0.3257883	0.12957733
0.14197858	0.82422248	0.12986104
0.13446372	0.06224471	0.69007928
0.13610216	0.57455667	0.64761928
0.65773362	0.31161394	0.66864054
0.62772137	0.82883168	0.64352032
0.63954746	0.06079701	0.13739106
0.64888805	0.56898734	0.12523673
0.11551961	0.32542717	0.12875406
0.14250051	0.82830715	0.13463985
0.13283027	0.06144266	0.68543736
0.13727292	0.57655038	0.64495862
0.65493401	0.30983227	0.66552424
0.63475211	0.82885262	0.64492485
0.63562341	0.06316248	0.1323011
0.65002205	0.56652528	0.13390432
0.12132839	0.325292	0.12792448
0.14160435	0.8319952	0.13838502
0.13297107	0.06266134	0.67721769
0.13947048	0.57902013	0.6424735
0.64833721	0.30979814	0.65907125
0.64118957	0.8282451	0.64144347
0.63289203	0.06601509	0.12954004
0.65051457	0.56505336	0.13531374
0.12934012	0.32510612	0.12896128
0.13871759	0.83423826	0.14186661
0.13241868	0.06569114	0.66718007
0.14333718	0.58169984	0.64272632
0.64064707	0.31116058	0.65103416
0.64360748	0.82769696	0.63604809
0.63384298	0.0676749	0.12935601
0.64955919	0.56568345	0.13126109
0.1355612	0.32328353	0.13382135
0.13309785	0.8350784	0.14335348
0.12899499	0.06920577	0.65759223
0.14446148	0.58370369	0.64524336
0.63519822	0.31344511	0.64354726
0.64136082	0.82761369	0.63245842
0.63901356	0.06668246	0.13213063
0.64944499	0.56818776	0.12621993
0.13885824	0.32040087	0.14082689
0.12563417	0.83427381	0.14245604
0.12553667	0.0706907	0.65245918
0.13985391	0.58416102	0.64813104
0.63276806	0.31686561	0.63670655
0.63761525	0.82824195	0.63353392
0.6427975	0.06286524	0.13614755
0.64850764	0.57116487	0.12585153
0.13964094	0.31847538	0.14644189
0.12127626	0.83339527	0.14184435
0.12555674	0.07052249	0.6492196
0.13319898	0.58148331	0.64660599
0.63470459	0.31968008	0.6317444
0.63580851	0.83060946	0.63775258
0.64364007	0.05715164	0.1396016
0.64742801	0.57300436	0.12816931
0.13886516	0.31734377	0.14743508
0.1227841	0.83240666	0.14052051
0.12763903	0.06854753	0.64574289
0.12724069	0.57699101	0.64348151
0.64049692	0.32173465	0.62994821
0.63673247	0.83362885	0.64191835
0.6426705	0.05300464	0.13885563
0.64742042	0.57272905	0.13108809
0.13840763	0.31635083	0.14470762
0.12651429	0.83139787	0.14064889
0.12839121	0.06520247	0.64290317
0.1252484	0.57315336	0.64355688
0.64853332	0.322888	0.63115485
0.63825663	0.83564564	0.64454777
0.64037761	0.05201858	0.13226427
0.64780282	0.57119537	0.1320758
0.13779945	0.31593902	0.14142522
0.12890872	0.83120287	0.14378816
0.12725141	0.06223328	0.6399956
0.12866047	0.57113811	0.64615032
0.65824439	0.32291559	0.63503452
0.63863814	0.83583569	0.64423636
0.63901432	0.05496174	0.12264363
0.64920338	0.56989958	0.12860377
0.13582592	0.31562056	0.13924638
0.12869132	0.83239053	0.14444091
0.12524483	0.06020205	0.63683995
0.13340438	0.57144523	0.65207767
0.66607926	0.32227458	0.63956003
0.63776132	0.83308096	0.64206361
0.63964241	0.05970051	0.11407596
0.65001003	0.56928816	0.12471886
0.13337006	0.31610318	0.14177115
0.12685915	0.83445096	0.14257862
0.12192277	0.05900674	0.63337762
0.13676306	0.57327004	0.65700607
0.66847525	0.32136275	0.64198853
0.63685193	0.82986947	0.63914795
0.64075118	0.06350246	0.11251484
0.64831768	0.57012287	0.1230756
0.13157031	0.31760732	0.1464049
0.12403836	0.83574219	0.14003936
0.11786633	0.05934063	0.62850734
0.1362397	0.57472186	0.65701126
0.66555825	0.3204858	0.64104683
0.63678801	0.82902202	0.63578559
0.64200434	0.06483068	0.11749958
0.64379682	0.57263795	0.12561901
0.13265498	0.31932467	0.14747548
0.12182538	0.83434549	0.13600745
0.11657785	0.06060494	0.62345573
0.13285963	0.57538578	0.65494198
0.65822784	0.32057835	0.63701993
0.63761862	0.83000278	0.63380764
0.64313979	0.06468714	0.12267351
0.63665892	0.57565182	0.13321457
0.13865868	0.32024085	0.14317869
0.12189704	0.83060843	0.1313661
0.1186697	0.06240961	0.6197044
0.1304887	0.57511134	0.65140573
0.64853841	0.32096974	0.63367706
0.63785968	0.83338572	0.63404811
0.64409925	0.06340945	0.12450625
0.63154869	0.57904088	0.14101531
0.14656591	0.3197353	0.13275104
0.1240512	0.82542946	0.12485487
0.12237274	0.06465928	0.61771342
0.13017318	0.57430039	0.64663549
0.6374712	0.32175705	0.63313224
0.63701079	0.83668136	0.63493076
0.64582192	0.06151417	0.12045241
0.63462361	0.58208878	0.14477381
0.15089882	0.31829238	0.1229092
0.12681902	0.82164984	0.11694041
0.12676355	0.06569881	0.61957741
0.1325369	0.57330168	0.64152129
0.62581851	0.32290446	0.63532275
0.63493997	0.83709477	0.63504847
0.64771011	0.06033685	0.11308687
0.64192162	0.58383033	0.14160726
0.14832594	0.31632719	0.11852693
0.1301324	0.82275139	0.1128287
0.13107505	0.06553776	0.62393199
0.13629771	0.57232272	0.63755196
0.61568375	0.32274241	0.63953403
0.63280634	0.83537687	0.63341622
0.64972045	0.06071922	0.10879756
0.64708364	0.58242518	0.13119266
0.14069053	0.31474518	0.11824962
0.13273821	0.82609642	0.11427125
0.13367603	0.06396304	0.62672671
0.13617476	0.57167343	0.63630048
0.60864053	0.32308249	0.64379764
0.63215795	0.83187624	0.62823678
0.65137282	0.06331032	0.10829876
0.64799525	0.57822061	0.12189852
0.13199261	0.31464458	0.11920847
0.13134793	0.82857635	0.12013918
0.13376914	0.06161753	0.6249822
0.13007525	0.57111219	0.63781598
0.60909638	0.32277579	0.64575216
0.63406808	0.82730419	0.6250427
0.65209142	0.06878262	0.10728792
0.64424726	0.57329995	0.11838
0.12469478	0.31674959	0.11796075
0.12694093	0.82856394	0.12847237
0.13291232	0.0600162	0.6177586
0.12104086	0.57099333	0.64079614
0.61617488	0.32052839	0.64613682
0.63733079	0.82277049	0.62719277
0.65230951	0.07497433	0.10384308
0.63854013	0.56966143	0.119108
0.12009683	0.31870747	0.11190062
0.12095132	0.82759307	0.13342737
0.1310193	0.05895419	0.61113646
0.11593217	0.57183681	0.64363667
0.62663293	0.31879889	0.64576636
0.63784943	0.81871185	0.63342247
0.65043676	0.07976025	0.09838809
0.63456718	0.56965011	0.1237635
0.11905772	0.32014712	0.10559499
0.11545816	0.82649831	0.13098416
0.12924948	0.05812319	0.60931902
0.11851695	0.57403145	0.64249272
0.63757073	0.31738894	0.64526868
0.63678019	0.81813692	0.64445681
0.64690054	0.0819295	0.09455156
0.63398842	0.57411117	0.12812792
0.11998121	0.32236558	0.10440764
0.11431527	0.82737573	0.12260524
0.12995131	0.05834078	0.61366502
0.12308526	0.57635687	0.63775713
0.64243419	0.31640724	0.64596747
0.63377994	0.82199864	0.65480514
0.64309988	0.08067741	0.09707771
0.63602487	0.58103109	0.13088332
0.1202536	0.32444277	0.10720437
0.11707092	0.83217944	0.1088886
0.13542256	0.05980863	0.62135125
0.1220058	0.57698385	0.63573274
0.6382265	0.31609523	0.64621197
0.62703608	0.82825942	0.65746153
0.6411882	0.07706113	0.10575508
0.63797115	0.58753413	0.13569302
0.11922627	0.32656071	0.11288124
0.11986908	0.83745331	0.0989613
0.14418619	0.0615378	0.62889185
0.11449345	0.57577326	0.63503657
0.63076876	0.31499822	0.64685958
0.62662801	0.83473241	0.65549697
0.64226814	0.07293947	0.11743242
0.63851111	0.59233656	0.14164469
0.11848443	0.32719304	0.11645963
0.1217702	0.84052549	0.09778139
0.15221586	0.06247075	0.63372258
0.10214423	0.57380505	0.63336027
0.62376663	0.3143999	0.64658088
0.63163131	0.83887626	0.65052285
0.6445754	0.07062935	0.12741494
0.63827496	0.59326684	0.14686598
0.11925536	0.32684641	0.11377519
0.1227929	0.83993533	0.10013382
0.15485547	0.06342532	0.63614417
0.09199789	0.57089133	0.63076299
0.62042772	0.31466892	0.64299183
0.63695007	0.8397576	0.64461003
0.64575874	0.07027679	0.13228348
0.63662716	0.58908129	0.14639877
0.12317541	0.32723932	0.10716776
0.12240643	0.83734214	0.10499861
0.15135339	0.06465062	0.63682104
0.08894972	0.56826216	0.62722707
0.62297236	0.3149478	0.63739091
0.64004577	0.83811246	0.63748632
0.64447699	0.07094947	0.13337235
0.63370203	0.58312234	0.13875977
0.12766853	0.32806768	0.10055324
0.12129038	0.83561183	0.10853369
0.14298798	0.06523632	0.63575897
0.08915702	0.56782643	0.62269199
0.6282436	0.31595856	0.63026734
0.63680929	0.83440669	0.62802433
0.64061756	0.07229042	0.13142158
0.62978055	0.57807736	0.13141583
0.12882858	0.32854805	0.10158396
0.1195245	0.83461159	0.10954996
0.13251171	0.06511712	0.63395088
0.09324251	0.56956859	0.61737545
0.63384536	0.31757643	0.62257631
0.62893523	0.83159899	0.61869507
0.63688043	0.07353153	0.12950092
0.62586796	0.57659458	0.12722908
0.12481072	0.32836616	0.1088436
0.11761016	0.8341958	0.11027802
0.12395782	0.06418184	0.63231875
0.09960132	0.57202359	0.61299345
0.63884614	0.31990708	0.61762878
0.62088926	0.83117445	0.61175367
0.63489143	0.07363559	0.13086553
0.62290368	0.57904918	0.12335805
0.11772097	0.32734707	0.11700852
0.11669873	0.83582774	0.11124962
0.11782743	0.06237548	0.63075194
0.10534374	0.57365048	0.61303185
0.64339507	0.32299484	0.61739091
0.61525969	0.83072057	0.60909801
0.6336144	0.0725269	0.13403145
0.62012428	0.58422477	0.12025966
0.1137733	0.32674337	0.12401346
0.11454461	0.83849839	0.11387732
0.1166813	0.06128388	0.62896941
0.11239301	0.57317947	0.61604999
0.64887567	0.32486497	0.62125618
0.61321592	0.83000314	0.61092391
0.63143181	0.07037382	0.13618593
0.61704768	0.58927388	0.11644119
0.11563541	0.32622553	0.12882432
0.11274744	0.84167586	0.11633416
0.11805304	0.0620281	0.62960476
0.12001226	0.57267078	0.61974518
0.65423725	0.32493511	0.62694616
0.61476108	0.82812187	0.61438157
0.62940086	0.06797093	0.13321765
0.6170494	0.59293751	0.11066868
0.12136142	0.32524347	0.13188852
0.11325429	0.84335296	0.11447124
0.11943298	0.06391639	0.63238269
0.12767378	0.57406147	0.62205457
0.65713623	0.32354243	0.63096182
0.61799905	0.82659431	0.61800249
0.62669683	0.06692553	0.12473877
0.62005469	0.59341767	0.10540361
0.12770783	0.32452133	0.1346448
0.1147498	0.84170887	0.11005094
0.11998674	0.06703993	0.63504507
0.13371255	0.57681016	0.62034652
0.65633133	0.3211236	0.63177533
0.62273861	0.82767926	0.6233681
0.62430543	0.06779263	0.1163642
0.62338549	0.59090228	0.10060116
0.13067386	0.32393187	0.13377893
0.11985236	0.8382389	0.10631948
0.11892966	0.06800327	0.63672241
0.1352343	0.58021826	0.61633597
0.65025686	0.31948514	0.62886841
0.62842395	0.82967394	0.6254348
0.62332667	0.07014581	0.11229004
0.62771628	0.5867214	0.09883592
0.12997188	0.32351754	0.13007314
0.1282228	0.83515083	0.10532937
0.11708564	0.06594804	0.63716537
0.1347181	0.58256379	0.6125963
0.64072137	0.31906125	0.62326958
0.63407768	0.83161843	0.62208942
0.62315218	0.07277336	0.11424765
0.63107653	0.58180896	0.10269837
0.12819303	0.32296682	0.12593192
0.13650231	0.83388714	0.1111632
0.1165785	0.06358363	0.63713155
0.13384306	0.58305913	0.61218859
0.63167834	0.31937099	0.61980106
0.63945601	0.833061	0.61604386
0.62488976	0.07414781	0.12043795
0.6334102	0.57719822	0.10671416
0.12789043	0.32161303	0.12124962
0.14142452	0.83423534	0.12106263
0.117706	0.06174091	0.63673356
0.13135427	0.58231332	0.616438
0.62555044	0.32053887	0.61991273
0.64365081	0.83380722	0.61137852
0.6279468	0.07341528	0.1230113
0.63487421	0.57419131	0.11118611
0.12941504	0.31972201	0.12044124
0.13971414	0.83308012	0.12991184
0.12025122	0.06282713	0.6347871
0.12962363	0.58072086	0.62328712
0.62435106	0.3199756	0.62383309
0.64702736	0.83482752	0.61429047
0.63032926	0.07005833	0.11863497
0.63486563	0.57287656	0.11472592
0.13078437	0.31781792	0.12397533
0.1303805	0.82971957	0.13583671
0.12314492	0.06646719	0.63269108
0.1281544	0.57894567	0.62982156
0.62758291	0.31834638	0.63051205
0.64953962	0.8358314	0.62411856
0.63090551	0.06516606	0.11128804
0.63633927	0.57419557	0.11599032
0.1306321	0.31713395	0.12948457
0.11870733	0.82604894	0.13589881
0.12324347	0.0698171	0.63044772
0.12659628	0.57785354	0.63457074
0.63337063	0.31839971	0.63708239
0.65089912	0.83707656	0.63916338
0.62808926	0.06067363	0.10599893
0.64030207	0.57779279	0.11740944
0.12887799	0.31831735	0.13672932
0.10972124	0.82310785	0.13073514
0.11965458	0.07191248	0.6278869
0.12709055	0.5778319	0.6378279
0.638859	0.31992961	0.64110919
0.65216974	0.83894	0.65598496
0.62147544	0.05874808	0.10593341
0.64544253	0.58115696	0.11916669
0.12662549	0.32023908	0.14042238
0.10944742	0.82221887	0.1227028
0.11410673	0.0724219	0.62759149
0.12832244	0.57911384	0.64054294
0.63862986	0.32320591	0.6423001
0.65416212	0.84007189	0.66534493
0.61430195	0.05959766	0.11020741
0.6508787	0.58321367	0.12061569
0.12532666	0.32137241	0.13743225
0.11801814	0.82386234	0.11385594
0.10911058	0.07209036	0.63112227
0.1297854	0.58179177	0.64264888
0.63446483	0.32724995	0.64110862
0.65758571	0.84019326	0.66369521
0.61059455	0.06264631	0.11619959
0.65407647	0.58181659	0.12271324
0.12325658	0.321148	0.12899547
0.12619418	0.82675528	0.10792771
0.1099226	0.07189428	0.63746194
0.13294069	0.58413929	0.64418807
0.62988881	0.3300883	0.64013778
0.66186908	0.83947595	0.65563271
0.61363656	0.06493327	0.12232145
0.65250927	0.57739021	0.1253797
0.11832613	0.31852518	0.11652531
0.13141672	0.82950389	0.10676505
0.11494026	0.07089047	0.64432545
0.13737512	0.5846565	0.64358544
0.62762844	0.3317189	0.64113519
0.66461084	0.838784	0.64528516
0.62057214	0.06468841	0.12797692
0.64728093	0.57213114	0.13023469
0.11147312	0.31480588	0.10531523
0.13432248	0.83081296	0.11160951
0.12191981	0.06867154	0.6490104
0.14178767	0.58294185	0.63905943
0.63078704	0.33237111	0.64397603
0.66356519	0.83993646	0.63552685
0.62929352	0.06297285	0.13479849
0.64133025	0.56756741	0.13783557
0.10506328	0.31362555	0.10068727
0.13561175	0.83079708	0.12174567
0.12969718	0.06602576	0.65082411
0.14354315	0.57953781	0.63404048
0.63476303	0.33267531	0.64670542
0.6570132	0.84239942	0.63013089
0.63897201	0.06108872	0.14329339
0.63905044	0.56571561	0.14482773
0.10385912	0.31413058	0.10393397
0.1383461	0.83078654	0.13278067
0.1370057	0.06345687	0.6497476
0.14111076	0.57464309	0.63370002
0.63509028	0.33286349	0.6464112
0.64560824	0.84309316	0.63236649
0.64917787	0.05989894	0.15114746
0.64233532	0.5659646	0.14815198
0.1076685	0.31501926	0.1136594
0.14094392	0.83118121	0.14127154
0.14172032	0.06219968	0.64599779
0.13566246	0.56913711	0.63946019
0.63283218	0.33186146	0.64525675
0.63398664	0.84077857	0.64047018
0.65799826	0.06022906	0.15686317
0.64813212	0.56644951	0.14699567
0.11490202	0.31535091	0.1259211
0.14219913	0.83223135	0.1454281
0.14257463	0.06211341	0.64116976
0.12821916	0.5648597	0.64921348
0.63090863	0.32920219	0.64706165
0.62506036	0.83529223	0.64969051
0.662786	0.06019075	0.15751938
0.65147538	0.56663889	0.14235225
0.12485422	0.31474487	0.13540678
0.1428158	0.8331674	0.14602172
0.13983883	0.06230347	0.63558344
0.12373833	0.56588094	0.65702802
0.63222041	0.32534494	0.64991162
0.62152584	0.82863822	0.65855973
0.6603376	0.05831689	0.15009782
0.64840305	0.56643066	0.13669055
0.13152553	0.3150842	0.14041376
0.14018018	0.83247184	0.14492445
0.13546289	0.06197225	0.63089107
0.12662857	0.5712696	0.66054782
0.63912833	0.32008996	0.65088683
0.62284709	0.82351167	0.66475118
0.65190788	0.05626695	0.13962865
0.6406388	0.56702904	0.13237829
0.13143708	0.31753309	0.14010911
0.13911763	0.83052551	0.14254548
0.13229952	0.05999712	0.62922205
0.13438134	0.57789304	0.65945778
0.65021609	0.31471795	0.6492113
0.62645885	0.82066846	0.66784935
0.64291726	0.0560637	0.13107514
0.63517824	0.56802293	0.13225593
0.1291856	0.32084659	0.13607301
0.14081215	0.82879758	0.13863894
0.13364391	0.05717864	0.63046893
0.14395414	0.58267766	0.65276086
0.65919403	0.31071544	0.64330843
0.63074042	0.81877058	0.66904198
0.64201477	0.05726659	0.12888939
0.63338454	0.56838318	0.13602007
0.12716865	0.32372377	0.13185136
0.14124564	0.82760525	0.13459024
0.14081911	0.05605739	0.6346305
0.15074219	0.58317151	0.64536172
0.66170453	0.30809409	0.63443408
0.63335754	0.81656996	0.66733086
0.64887853	0.05917172	0.1329204
0.63416919	0.56846709	0.14004952
0.12691335	0.32382841	0.12885465
0.14016692	0.82712703	0.13236516
0.14988426	0.05709222	0.63880245
0.14782046	0.57987266	0.64299446
0.65591511	0.30781869	0.62826197
0.63254172	0.81381257	0.66466599
0.65769656	0.06063956	0.14004841
0.63461922	0.56722077	0.14344023
0.12914487	0.3208044	0.1295581
0.13653323	0.82710121	0.13325473
0.1557445	0.05951342	0.64227258
0.13648414	0.5740752	0.65057316
0.64670082	0.30691855	0.62824242
0.63006606	0.81175734	0.66345552
0.66572575	0.06034697	0.14466894
0.63389932	0.56438882	0.14616843
0.13135725	0.31757439	0.13343254
0.13148691	0.82658511	0.13803449
0.15745858	0.0620743	0.64626722
0.12172186	0.5658278	0.66540463
0.64164076	0.30248443	0.63573252
0.62862805	0.81090594	0.66388936
0.6698063	0.05880321	0.14055642
0.63373909	0.56221271	0.14769821
0.13710564	0.31439371	0.1386993
0.12756843	0.82573636	0.14529687
0.15556335	0.06358196	0.64827339
0.10771232	0.55787421	0.67463825
0.64389184	0.29573251	0.64710966
0.62987462	0.81083991	0.66932343
0.66724315	0.05584049	0.13175699
0.63370243	0.56137404	0.14838856
0.1466627	0.3133918	0.14575234
0.12431042	0.82457691	0.15357893
0.14979429	0.06369771	0.64999208
0.09825232	0.55437516	0.67227928
0.64971036	0.28972283	0.65634185
0.63522978	0.81236044	0.67532103
0.65779288	0.05275565	0.12577225
0.63474176	0.56238002	0.14649803
0.1551066	0.31530313	0.15226283
0.12219576	0.82311147	0.15869886
0.14248643	0.06256333	0.65144697
0.09285948	0.55800757	0.66239124
0.65536006	0.28903919	0.66185617
0.64156075	0.81516512	0.67410824
0.64755354	0.05056891	0.12705751
0.63817664	0.56475825	0.1417277
0.16113617	0.31687704	0.15494023
0.12394955	0.82319856	0.15979833
0.13590657	0.06032851	0.65211382
0.09361227	0.56538206	0.65325148
0.65808559	0.29284028	0.66115571
0.64467342	0.81705755	0.66575159
0.64352741	0.04944666	0.1346533
0.64203224	0.56461184	0.13574938
0.16507205	0.3186112	0.15440785
0.12294785	0.82435071	0.16005989
0.13135343	0.0576124	0.65540317
0.1013395	0.57323538	0.65138329
0.65788815	0.29807865	0.65282936
0.6447807	0.81786227	0.65343392
0.64365802	0.05083268	0.1400828
0.6438985	0.56357047	0.13115884
0.16574482	0.32022584	0.1510626
0.11776483	0.82611597	0.16084963
0.12874726	0.05424202	0.6595862
0.10994601	0.57906209	0.65143137
0.65528535	0.30332474	0.64339827
0.64369492	0.81793316	0.64135308
0.64750429	0.05368325	0.13789827
0.64372494	0.56242175	0.13246532
0.1618811	0.32038594	0.14724344
0.11255838	0.8283127	0.16108641
0.12775466	0.05104413	0.66278764
0.11609867	0.58184255	0.64972831
0.6522351	0.30802779	0.63804725
0.64370051	0.81766729	0.63345571
0.654241	0.05562049	0.13066486
0.6395209	0.56053235	0.13811594
0.15080655	0.31922971	0.14514214
0.11019712	0.82863105	0.159571
0.12880903	0.04940836	0.66420709
0.12005007	0.57999616	0.64781758
0.65057931	0.31172126	0.63854624
0.64577097	0.81804115	0.62817215
0.65825718	0.0559937	0.12449456
0.63469414	0.55917367	0.14218414
0.13512471	0.31575623	0.14423971
0.11449906	0.82658306	0.15493048
0.13119674	0.04969511	0.66233433
0.12034329	0.57414474	0.64756841
0.65083104	0.31446416	0.644542
0.64739319	0.81901187	0.62693021
0.65908915	0.05493318	0.12222164
0.6328016	0.55876962	0.14222811
0.12342548	0.3108126	0.14411898
0.12202977	0.82378063	0.14803718
0.13428879	0.05137642	0.65826033
0.11999666	0.56673349	0.64898735
0.64970725	0.31663094	0.65010647
0.64660305	0.82042798	0.62969659
0.65571411	0.05393843	0.12384278
0.63396978	0.56023811	0.13842816
0.11693257	0.3072953	0.14386399
0.12822859	0.8214835	0.14163544
0.13795656	0.05315392	0.65335753
0.12020972	0.55992848	0.65141068
0.64561278	0.31760198	0.65314895
0.64276259	0.82226329	0.63219305
0.64950898	0.05411962	0.12626802
0.64166893	0.56451737	0.13199056
0.11706034	0.30577506	0.14354776
0.13025768	0.82174409	0.13752004
0.14119214	0.05406972	0.65078918
0.12047087	0.55619644	0.65210804
0.64095697	0.3179823	0.65326376
0.63680673	0.8234151	0.6349165
0.64370943	0.05491433	0.12640788
0.64971676	0.56887851	0.12387336
0.12297869	0.30739619	0.14497536
0.12592834	0.82426971	0.13749867
0.14130595	0.05433033	0.65185343
0.12418158	0.55692665	0.64858099
0.63642697	0.31755207	0.65183648
0.63319621	0.82425995	0.63685344
0.6374086	0.05572203	0.12300055
0.65170232	0.57189936	0.11631729
0.13087908	0.31039761	0.14743032
0.12055989	0.82726099	0.13941594
0.13708242	0.05498958	0.65329403
0.13157636	0.56188142	0.64381772
0.63442064	0.31634914	0.65070366
0.63409911	0.8253665	0.63645637
0.6318438	0.05565409	0.11705729
0.64832722	0.5728612	0.11109661
0.13851823	0.31262117	0.14915801
0.11983083	0.82974209	0.13858386
0.13092663	0.05696737	0.65430396
0.14122151	0.5693808	0.64081304
0.63570162	0.31621505	0.64803686
0.63860365	0.82693844	0.6361841
0.62903363	0.0558468	0.11475864
0.64081759	0.5712747	0.10788102
0.14266558	0.31428228	0.15059569
0.12515115	0.83090879	0.13361387
0.12604018	0.05951029	0.65313567
0.15159462	0.57611641	0.63980774
0.63710164	0.31773956	0.64165543
0.64368425	0.82929053	0.63672048
0.6282489	0.05924247	0.11878826
0.63435092	0.56974687	0.1065889
0.141114	0.31411735	0.15028609
0.13281889	0.83065448	0.12473321
0.12622781	0.06229516	0.6500724
0.15724326	0.57864219	0.64023603